LAMMPS (7 Aug 2019)
processors         * 1 1 # manually assign processors to spatial regions
atom_style         meso
dimension          2
newton             on
boundary           f f p
units              lj
read_data          data.initial
  orthogonal box = (0 0 -0.001) to (4.001 8.001 0.001)
  1 by 1 by 1 MPI processor grid
  reading atoms ...
  15702 atoms
  reading velocities ...
  15702 velocities
  read_data CPU = 0.245356 secs

variable           h equal 0.03
variable           c equal 10.0 # soundspeed for Tait's EOS
variable           dt equal 0.1*${h}/${c} # upper limit of timestep based on CFL-like criterion
variable           dt equal 0.1*0.03/${c} 
variable           dt equal 0.1*0.03/10 
variable           nrun equal 15.0/${dt} # roughly estimate number of timesteps needed for 7.5 seconds
variable           nrun equal 15.0/0.0003 

group              bc    type 2 # assign group name "bc" to boundary particles (type 2)
6000 atoms in group bc
group              water type 1 # assign group name "water" to water particles (type 1)
9702 atoms in group water

set                type 1 meso/e 1000
  9702 settings made for meso/e
set		   type 2 meso/e 41670
  6000 settings made for meso/e

# use hybrid pairstyle which does density summation with cutoff ${h} every timestep (1)
pair_style         hybrid/overlay sph/rhosum 1 sph/taitwater sph/heatconduction
pair_coeff         * * sph/taitwater 1000.0 ${c} 1.0 ${h} # use target density of 1000, soundspeed ${c} for Tait's EOS
pair_coeff         * * sph/taitwater 1000.0 10 1.0 ${h} 
pair_coeff         * * sph/taitwater 1000.0 10 1.0 0.03 
pair_coeff         1 1 sph/rhosum ${h}
pair_coeff         1 1 sph/rhosum 0.03

pair_coeff	   * * sph/heatconduction 1.47e-3 ${h}
pair_coeff	   * * sph/heatconduction 1.47e-3 0.03


fix                gfix water gravity -9.81 vector 0 1 0 # add gravity. This fix also computes potential energy of mass in gravity field.
fix                2d_fix all enforce2d

variable   tempe 	atom  ((c_e_peratom-1000)/(0.2*4117)+300)
variable   tempera	atom  ((c_e_peratom-500)/(0.1*4117)+300)

compute            rho_peratom all meso/rho/atom
compute            e_peratom all meso/e/atom
compute            esph all reduce sum c_e_peratom
compute            ke all ke
variable           etot equal c_esph+c_ke+f_gfix




#                                     adjust nevery | min. allowed dt | max. allowed dt | max. travel distance per dt # // ${dt} ~= CFL criterion 0.1*h/c
fix                dtfix all dt/reset 1               NULL              ${dt}             0.0005 units box # use a variable timestep
fix                dtfix all dt/reset 1               NULL              0.0003             0.0005 units box 

# time-integrate position, velocities, internal energy and density of water particles
fix                integrate_water_fix water meso

# time-integrate only internal energy and density of boundary particles
fix                integrate_bc_fix bc meso/stationary
dump               dump_id all custom 100 dump.lammpstrj id type xs ys zs mass c_rho_peratom c_e_peratom fx fy v_tempe v_tempera
dump_modify        dump_id first yes
thermo             10
thermo_style       custom step ke c_esph v_etot f_gfix press time f_dtfix
thermo_modify      norm no

neigh_modify       every 5 delay 0 check no
variable           skin equal 0.3*${h}
variable           skin equal 0.3*0.03
neighbor           ${skin} bin # set Verlet list skin distance
neighbor           0.009 bin 
viscosity	   4P 1.856e-11 4209 0.04527 -3.376e-5

run                ${nrun}
run                50000
Neighbor list info ...
  update every 5 steps, delay 0 steps, check no
  max neighbors/atom: 2000, page size: 100000
  master list distance cutoff = 0.039
  ghost atom cutoff = 0.039
  binsize = 0.0195, bins = 206 411 1
  4 neighbor lists, perpetual/occasional/extra = 4 0 0
  (1) pair sph/rhosum, perpetual, skip from (4)
      attributes: full, newton on
      pair build: skip
      stencil: none
      bin: none
  (2) pair sph/taitwater, perpetual, half/full from (4)
      attributes: half, newton on
      pair build: halffull/newton
      stencil: none
      bin: none
  (3) pair sph/heatconduction, perpetual, copy from (2)
      attributes: half, newton on
      pair build: copy
      stencil: none
      bin: none
  (4) neighbor class addition, perpetual
      attributes: full, newton on
      pair build: full/bin/atomonly
      stencil: full/bin/2d
      bin: standard
Per MPI rank memory allocation (min/avg/max) = 11.82 | 11.82 | 11.82 Mbytes
Step KinEng c_esph v_etot f_gfix Press Time f_dtfix 
       0            0  2.59722e+08 2.5974132e+08    19320.854   -1.1300451            0            0 
      10    78.554394 2.5972192e+08 2.5974132e+08    19320.223    15.619455 0.0023456035           10 
      20    79.923128 2.5972192e+08 2.5974132e+08    19318.545    24.636641 0.0045614117           18 
      30     55.14229 2.5972195e+08 2.5974132e+08    19315.063    10.813974 0.0073702753           28 
      40    32.820408 2.5972198e+08 2.5974132e+08    19309.692    4.2602387  0.010370275           28 
      50    50.870451 2.5972197e+08 2.5974132e+08     19302.56     11.40279  0.013358403           45 
      60    57.930232 2.5972197e+08 2.5974132e+08    19293.667    5.4629054  0.016358403           45 
      70    54.567848 2.5972198e+08 2.5974132e+08    19283.184    1.8551041  0.019358403           45 
      80    66.842334 2.5972198e+08 2.5974132e+08    19271.173     6.194329  0.022358403           45 
      90    81.295501 2.5972198e+08 2.5974132e+08    19257.635    3.7165395  0.025358403           45 
     100    88.248047 2.5972199e+08 2.5974132e+08    19242.579    2.1115469  0.028358403           45 
     110    102.58715 2.5972199e+08 2.5974132e+08    19226.045    6.7225987  0.031358403           45 
     120    122.55198 2.5972199e+08 2.5974132e+08    19208.081    9.6234042  0.034358403           45 
     130    137.14444 2.5972199e+08 2.5974132e+08    19188.706    10.177369  0.037358403           45 
     140    152.36833  2.59722e+08 2.5974132e+08    19167.921    12.579361  0.040358403           45 
     150     173.7573  2.59722e+08 2.5974132e+08    19145.743    16.112532  0.043358403           45 
     160    195.77629  2.59722e+08 2.5974132e+08    19122.204    18.527603  0.046358403           45 
     170    215.59716 2.5972201e+08 2.5974132e+08     19097.34    22.119588  0.049358403           45 
     180    236.88204 2.5972201e+08 2.5974132e+08    19071.177    26.709959  0.052358403           45 
     190    261.80128 2.5972202e+08 2.5974132e+08    19043.733    30.939013  0.055358403           45 
     200    287.00385 2.5972202e+08 2.5974132e+08    19015.025    35.071544  0.058358403           45 
     210    311.84428 2.5972202e+08 2.5974132e+08    18985.073    39.411768  0.061358403           45 
     220    338.90181 2.5972203e+08 2.5974132e+08    18953.894     43.97013  0.064358403           45 
     230    367.86207 2.5972203e+08 2.5974132e+08    18921.506    48.550278  0.067358403           45 
     240    396.79942 2.5972204e+08 2.5974132e+08    18887.927    53.388187  0.070358403           45 
     250    426.01299 2.5972204e+08 2.5974132e+08    18853.176    58.687435  0.073358403           45 
     260    456.98955 2.5972205e+08 2.5974132e+08    18817.274    64.489539  0.076358403           45 
     270    488.91722 2.5972205e+08 2.5974132e+08    18780.239    70.150233  0.079358403           45 
     280    520.66646 2.5972206e+08 2.5974132e+08    18742.475      75.7275  0.082328472          280 
     290    551.75075 2.5972206e+08 2.5974132e+08     18705.36    81.295336  0.085168226          290 
     300    584.18591 2.5972207e+08 2.5974132e+08    18667.138    87.174175   0.08801785          300 
     310    616.04341 2.5972208e+08 2.5974132e+08    18629.629    92.925429   0.09074664          310 
     320    646.73928 2.5972208e+08 2.5974132e+08    18593.123     98.85907  0.093343113          320 
     330    677.92832 2.5972209e+08 2.5974132e+08    18556.031    105.52016  0.095925693          330 
     340    708.81152 2.5972209e+08 2.5974132e+08    18519.695    112.71486  0.098405107          340 
     350    739.09873 2.597221e+08 2.5974132e+08    18484.364    120.17238   0.10077113          350 
     360    769.44633 2.597221e+08 2.5974132e+08    18448.969    128.06993   0.10309974          360 
     370    800.24627 2.5972211e+08 2.5974132e+08    18412.841    136.54069   0.10543617          370 
     380    830.78979 2.5972211e+08 2.5974132e+08    18376.701    145.24151   0.10773484          380 
     390     860.9205 2.5972212e+08 2.5974132e+08    18340.633    153.81816   0.10999278          390 
     400    890.93172 2.5972213e+08 2.5974132e+08    18304.217    162.00801   0.11223778          400 
     410      921.252 2.5972213e+08 2.5974132e+08    18267.146    169.63115    0.1144894          410 
     420    951.89043 2.5972214e+08 2.5974132e+08    18229.866    176.53098    0.1167213          420 
     430    983.10686 2.5972215e+08 2.5974132e+08    18192.299    182.82631   0.11893937          430 
     440    1015.1787 2.5972215e+08 2.5974132e+08     18153.86    188.79183   0.12117858          440 
     450    1047.6417 2.5972216e+08 2.5974132e+08    18114.747     194.5339   0.12342734          450 
     460    1079.8199 2.5972217e+08 2.5974132e+08    18075.851    200.01453   0.12563563          460 
     470    1111.9318 2.5972217e+08 2.5974132e+08    18037.228    205.23868   0.12780234          470 
     480    1144.1273 2.5972218e+08 2.5974132e+08    17998.758    210.21807   0.12993607          480 
     490    1176.3928 2.5972218e+08 2.5974132e+08     17960.28    215.00853   0.13204722          490 
     500    1208.4615 2.5972219e+08 2.5974132e+08    17922.015    219.61298   0.13412496          500 
     510    1240.0388 2.597222e+08 2.5974132e+08    17884.426    224.00847   0.13614592          510 
     520    1271.2324 2.597222e+08 2.5974132e+08    17847.503    228.26818   0.13811254          520 
     530    1302.0917 2.5972221e+08 2.5974132e+08    17811.163    232.44405   0.14003102          530 
     540    1332.6482 2.5972221e+08 2.5974132e+08    17775.287    236.57227   0.14190895          540 
     550    1362.9726 2.5972222e+08 2.5974132e+08    17739.762    240.66294   0.14375353          550 
     560    1393.1045 2.5972222e+08 2.5974132e+08    17704.544    244.67708   0.14556785          560 
     570     1422.964 2.5972223e+08 2.5974132e+08    17669.763    248.56127   0.14734627          570 
     580    1452.5938 2.5972223e+08 2.5974132e+08    17635.405    252.29842   0.14909041          580 
     590    1481.9945 2.5972224e+08 2.5974132e+08    17601.451    255.88679   0.15080204          590 
     600    1511.1379 2.5972224e+08 2.5974132e+08    17567.912    259.31916   0.15248155          600 
     610    1539.9454 2.5972225e+08 2.5974132e+08    17534.875    262.60767   0.15412524          610 
     620    1568.4956 2.5972225e+08 2.5974132e+08    17502.249     265.7952    0.1557384          620 
     630    1596.9159 2.5972225e+08 2.5974132e+08    17469.904    268.92593   0.15732811          630 
     640    1625.3312 2.5972226e+08 2.5974132e+08    17437.725    272.03801   0.15890035          640 
     650    1653.8092 2.5972226e+08 2.5974132e+08    17405.627    275.15205   0.16045964          650 
     660    1682.3836 2.5972226e+08 2.5974132e+08    17373.562    278.26362   0.16200854          660 
     670    1711.0454 2.5972227e+08 2.5974132e+08    17341.539    281.34683    0.1635468          670 
     680    1739.6918 2.5972227e+08 2.5974132e+08    17309.668    284.36735   0.16506947          680 
     690    1768.2985 2.5972227e+08 2.5974132e+08    17277.944    287.31292   0.16657699          690 
     700    1796.8246 2.5972228e+08 2.5974132e+08    17246.373    290.18365   0.16806932          700 
     710    1825.2742 2.5972228e+08 2.5974132e+08    17214.925    292.99602   0.16954817          710 
     720    1853.6907 2.5972228e+08 2.5974132e+08    17183.524    295.77417   0.17101725          720 
     730    1882.0935 2.5972229e+08 2.5974132e+08    17152.156    298.52584   0.17247736          730 
     740    1910.5403 2.5972229e+08 2.5974132e+08    17120.788    301.25573   0.17393015          740 
     750    1939.1103 2.5972229e+08 2.5974132e+08    17089.355    303.96286   0.17537875          750 
     760    1967.8509 2.597223e+08 2.5974132e+08    17057.808    306.64132   0.17682539          760 
     770    1996.7843 2.597223e+08 2.5974132e+08    17026.129     309.2828   0.17827094          770 
     780    2025.9003 2.597223e+08 2.5974132e+08    16994.331    311.87937   0.17971483          780 
     790    2055.1213 2.597223e+08 2.5974132e+08     16962.48    314.41941    0.1811541          790 
     800    2084.3748 2.5972231e+08 2.5974132e+08     16930.64    316.89087   0.18258588          800 
     810    2113.6686 2.5972231e+08 2.5974132e+08    16898.802    319.28692   0.18401074          810 
     820    2142.9994 2.5972231e+08 2.5974132e+08    16866.957     321.6026   0.18542924          820 
     830    2172.3297 2.5972231e+08 2.5974132e+08    16835.119    323.84064   0.18684084          830 
     840    2201.6152 2.5972232e+08 2.5974132e+08    16803.318    326.00769   0.18824435          840 
     850    2230.8586 2.5972232e+08 2.5974132e+08    16771.552    328.10973   0.18964003          850 
     860     2260.067 2.5972232e+08 2.5974132e+08    16739.813    330.16079   0.19102848          860 
     870    2289.2625 2.5972232e+08 2.5974132e+08    16708.076    332.17797   0.19241093          870 
     880    2318.4926 2.5972233e+08 2.5974132e+08    16676.298     334.1864   0.19378932          880 
     890    2347.8096 2.5972233e+08 2.5974132e+08    16644.435    336.21272   0.19516576          890 
     900    2377.2889 2.5972233e+08 2.5974132e+08    16612.452    338.28253   0.19654171          900 
     910    2406.9304 2.5972233e+08 2.5974132e+08    16580.391    340.41285   0.19791547          910 
     920    2436.7533 2.5972234e+08 2.5974132e+08    16548.261    342.60869   0.19928675          920 
     930    2466.7082 2.5972234e+08 2.5974132e+08    16516.122    344.86921   0.20065299          930 
     940    2496.7753 2.5972234e+08 2.5974132e+08    16483.994    347.18191    0.2020135          940 
     950      2526.97 2.5972234e+08 2.5974132e+08     16451.84    349.54093   0.20336995          950 
     960    2557.2895 2.5972234e+08 2.5974132e+08    16419.634    351.94637   0.20472352          960 
     970    2587.7316 2.5972235e+08 2.5974132e+08    16387.365    354.38677   0.20607478          970 
     980    2618.2859 2.5972235e+08 2.5974132e+08    16355.034    356.82516   0.20742385          980 
     990    2648.9138 2.5972235e+08 2.5974132e+08    16322.672    359.21776   0.20876956          990 
    1000    2679.5161 2.5972235e+08 2.5974132e+08    16290.383    361.99562   0.21010761         1000 
    1010    2709.8571 2.5972235e+08 2.5974132e+08    16258.177    364.10296   0.21143787         1010 
    1020     2740.182 2.5972235e+08 2.5974132e+08    16226.099    366.03925    0.2127586         1020 
    1030    2770.4309 2.5972236e+08 2.5974132e+08    16194.183    367.76131   0.21406842         1030 
    1040     2800.576 2.5972236e+08 2.5974132e+08    16162.396    369.25792   0.21536878         1040 
    1050     2830.567 2.5972236e+08 2.5974132e+08    16130.709    370.54785   0.21666097         1050 
    1060    2860.3455 2.5972236e+08 2.5974132e+08    16099.097    371.67917   0.21794603         1060 
    1070    2889.8913 2.5972236e+08 2.5974132e+08    16067.539    372.72653   0.21922481         1070 
    1080    2919.2521 2.5972237e+08 2.5974132e+08     16036.02    373.75793   0.22049799         1080 
    1090    2948.5163 2.5972237e+08 2.5974132e+08    16004.531    374.83582   0.22176601         1090 
    1100    2977.7695 2.5972237e+08 2.5974132e+08    15973.068    376.00986   0.22302902         1100 
    1110    3007.0795 2.5972237e+08 2.5974132e+08    15941.635     377.3113   0.22428695         1110 
    1120    3036.4976 2.5972237e+08 2.5974132e+08     15910.24    378.75015   0.22553955         1120 
    1130    3066.0315 2.5972238e+08 2.5974132e+08    15878.914    380.31404   0.22678562         1130 
    1140    3095.6974 2.5972238e+08 2.5974132e+08    15847.645    381.98411    0.2280257         1140 
    1150    3125.5193 2.5972238e+08 2.5974132e+08    15816.409    383.72625   0.22926083         1150 
    1160    3155.4933 2.5972238e+08 2.5974132e+08     15785.18      385.507   0.23049203         1160 
    1170    3185.5672 2.5972238e+08 2.5974132e+08    15753.952    387.28113   0.23171953         1170 
    1180     3215.622 2.5972238e+08 2.5974132e+08    15722.778    389.00725   0.23294136         1180 
    1190    3245.6195 2.5972238e+08 2.5974132e+08    15691.656    390.64869   0.23415755         1190 
    1200    3275.6103 2.5972238e+08 2.5974132e+08    15660.558    392.16595   0.23536928         1200 
    1210    3305.6391 2.5972239e+08 2.5974132e+08    15629.456    393.53971   0.23657764         1210 
    1220    3335.7715 2.5972239e+08 2.5974132e+08    15598.326    394.74701   0.23778359         1220 
    1230    3366.0432 2.5972239e+08 2.5974132e+08    15567.151    395.78794   0.23898781         1230 
    1240    3396.3989 2.5972239e+08 2.5974132e+08    15535.979    396.66826   0.24018851         1240 
    1250    3426.7636 2.5972239e+08 2.5974132e+08    15504.825    397.40455    0.2413851         1250 
    1260    3457.0827 2.5972239e+08 2.5974132e+08    15473.684     398.0232   0.24257783         1260 
    1270    3487.3045 2.5972239e+08 2.5974132e+08    15442.554    398.55957    0.2437669         1270 
    1280    3517.3889 2.5972239e+08 2.5974132e+08    15411.428    399.04348   0.24495253         1280 
    1290    3547.3343 2.5972239e+08 2.5974132e+08    15380.303    399.49483   0.24613497         1290 
    1300    3577.1549 2.5972239e+08 2.5974132e+08    15349.169    399.93327   0.24731455         1300 
    1310    3606.8622 2.597224e+08 2.5974132e+08    15318.019    400.37464   0.24849166         1310 
    1320    3636.4531 2.597224e+08 2.5974132e+08    15286.853    400.82948   0.24966626         1320 
    1330    3665.9165 2.597224e+08 2.5974132e+08    15255.714     401.2962   0.25083681         1330 
    1340    3695.2627 2.597224e+08 2.5974132e+08    15224.602    401.78212   0.25200334         1340 
    1350      3724.51 2.597224e+08 2.5974132e+08    15193.509    402.28959    0.2531662         1350 
    1360    3753.6963 2.597224e+08 2.5974132e+08    15162.425    402.81264   0.25432582         1360 
    1370    3782.8855 2.5972241e+08 2.5974132e+08    15131.337    403.34661    0.2554827         1370 
    1380    3812.1029 2.5972241e+08 2.5974132e+08    15100.234    403.89194   0.25663735         1380 
    1390    3841.3447 2.5972241e+08 2.5974132e+08    15069.107    404.44478   0.25779016         1390 
    1400    3870.6041 2.5972241e+08 2.5974132e+08    15037.948    405.01389   0.25894143         1400 
    1410    3899.8808 2.5972241e+08 2.5974132e+08    15006.757    405.59519   0.26009126         1410 
    1420    3929.1702 2.5972242e+08 2.5974132e+08    14975.536    406.18736    0.2612396         1420 
    1430    3958.4681 2.5972242e+08 2.5974132e+08    14944.291    406.78647   0.26238631         1430 
    1440      3987.74 2.5972242e+08 2.5974132e+08    14913.028    407.40056   0.26353118         1440 
    1450    4016.9663 2.5972242e+08 2.5974132e+08    14881.754    408.03809   0.26467405         1450 
    1460    4046.1386 2.5972242e+08 2.5974132e+08    14850.473    408.69954   0.26581481         1460 
    1470     4075.246 2.5972243e+08 2.5974132e+08     14819.19    409.38412   0.26695333         1470 
    1480    4104.2575 2.5972243e+08 2.5974132e+08    14787.945    410.09033   0.26808826         1480 
    1490     4133.177 2.5972243e+08 2.5974132e+08    14756.747    410.81003   0.26921924         1490 
    1500     4162.008 2.5972243e+08 2.5974132e+08    14725.595    411.54279   0.27034648         1500 
    1510    4190.7833 2.5972244e+08 2.5974132e+08    14694.482    412.27634   0.27147021         1510 
    1520    4219.5274 2.5972244e+08 2.5974132e+08    14663.404    413.00778    0.2725907         1520 
    1530    4248.2539 2.5972244e+08 2.5974132e+08    14632.356    413.72738   0.27370819         1530 
    1540    4276.9468 2.5972244e+08 2.5974132e+08    14601.333    414.43925   0.27482287         1540 
    1550    4305.6196 2.5972244e+08 2.5974132e+08    14570.332    415.13369   0.27593491         1550 
    1560    4334.2884 2.5972245e+08 2.5974132e+08    14539.354     415.8071   0.27704441         1560 
    1570    4362.9581 2.5972245e+08 2.5974132e+08    14508.396     416.4493   0.27815144         1570 
    1580    4391.6269 2.5972245e+08 2.5974132e+08    14477.459    417.06314   0.27925609         1580 
    1590    4420.2756 2.5972245e+08 2.5974132e+08    14446.542    417.64331   0.28035841         1590 
    1600    4448.8808 2.5972246e+08 2.5974132e+08    14415.645    418.18187   0.28145849         1600 
    1610    4477.4716 2.5972246e+08 2.5974132e+08    14384.768    418.66455   0.28255639         1610 
    1620    4506.0605 2.5972246e+08 2.5974132e+08    14353.911    419.08926   0.28365215         1620 
    1630    4534.6374 2.5972246e+08 2.5974132e+08    14323.075    419.45841   0.28474579         1630 
    1640    4563.1791 2.5972247e+08 2.5974132e+08    14292.261    419.76877   0.28583729         1640 
    1650    4591.6928 2.5972247e+08 2.5974132e+08    14261.473    420.01821    0.2869266         1650 
    1660    4620.1597 2.5972247e+08 2.5974132e+08    14230.713    420.22071   0.28801368         1660 
    1670    4648.5489 2.5972247e+08 2.5974132e+08    14199.984    420.39008   0.28909848         1670 
    1680    4676.8475 2.5972247e+08 2.5974132e+08    14169.285    420.52585   0.29018101         1680 
    1690    4705.0832 2.5972248e+08 2.5974132e+08    14138.619    420.63937   0.29126131         1690 
    1700    4733.2692 2.5972248e+08 2.5974132e+08    14107.983    420.74937   0.29233945         1700 
    1710    4761.3867 2.5972248e+08 2.5974132e+08    14077.378    420.86879   0.29341551         1710 
    1720    4789.4246 2.5972248e+08 2.5974132e+08    14046.803     421.0048   0.29448955         1720 
    1730    4817.4261 2.5972249e+08 2.5974132e+08    14016.256    421.16851   0.29556161         1730 
    1740    4845.4063 2.5972249e+08 2.5974132e+08     13985.74    421.38468   0.29663172         1740 
    1750    4873.3384 2.5972249e+08 2.5974132e+08    13955.255    421.65871   0.29769986         1750 
    1760    4901.2114 2.5972249e+08 2.5974132e+08    13924.801    422.00071   0.29876606         1760 
    1770    4929.0605 2.597225e+08 2.5974132e+08    13894.391    422.40698   0.29982994         1770 
    1780    4956.8695 2.597225e+08 2.5974132e+08    13864.043    422.89268    0.3008909         1780 
    1790    4984.6163 2.597225e+08 2.5974132e+08    13833.756     423.4608   0.30194901         1790 
    1800    5012.3136 2.597225e+08 2.5974132e+08    13803.529    424.11444   0.30300439         1800 
    1810    5039.9843 2.5972251e+08 2.5974132e+08    13773.358    424.84707   0.30405714         1810 
    1820    5067.6219 2.5972251e+08 2.5974132e+08    13743.244    425.65646   0.30510732         1820 
    1830    5095.2211 2.5972251e+08 2.5974132e+08    13713.186    426.55337   0.30615496         1830 
    1840     5122.768 2.5972251e+08 2.5974132e+08    13683.186    427.53311   0.30720003         1840 
    1850    5150.2298 2.5972252e+08 2.5974132e+08    13653.245    428.59647   0.30824249         1850 
    1860    5177.6188 2.5972252e+08 2.5974132e+08    13623.366    429.74481   0.30928229         1860 
    1870    5204.9564 2.5972252e+08 2.5974132e+08    13593.551    430.97437    0.3103194         1870 
    1880     5232.233 2.5972252e+08 2.5974132e+08      13563.8    432.28853   0.31135381         1880 
    1890    5259.4319 2.5972253e+08 2.5974132e+08    13534.112    433.68245   0.31238558         1890 
    1900    5286.5641 2.5972253e+08 2.5974132e+08    13504.485    435.15225   0.31341484         1900 
    1910     5313.642 2.5972253e+08 2.5974132e+08    13474.913    436.69669   0.31444177         1910 
    1920     5340.649 2.5972253e+08 2.5974132e+08     13445.39    438.30699   0.31546657         1920 
    1930    5367.5668 2.5972254e+08 2.5974132e+08    13415.912     439.9886   0.31648948         1930 
    1940    5394.4247 2.5972254e+08 2.5974132e+08    13386.471    441.73654   0.31751072         1940 
    1950    5421.2148 2.5972254e+08 2.5974132e+08    13357.063    443.55362   0.31853049         1950 
    1960    5447.9336 2.5972255e+08 2.5974132e+08    13327.683    445.42767   0.31954896         1960 
    1970    5474.5846 2.5972255e+08 2.5974132e+08    13298.327    447.35865   0.32056626         1970 
    1980    5501.1785 2.5972255e+08 2.5974132e+08    13268.996    449.34433   0.32158241         1980 
    1990    5527.6945 2.5972255e+08 2.5974132e+08    13239.713    451.36995   0.32259659         1990 
    2000    5554.1421 2.5972256e+08 2.5974132e+08    13210.487    452.82077   0.32360852         2000 
    2010     5580.822 2.5972256e+08 2.5974132e+08    13181.318    454.94101   0.32461817         2010 
    2020    5607.4201 2.5972256e+08 2.5974132e+08    13152.204    457.07861   0.32562564         2020 
    2030    5633.9404 2.5972256e+08 2.5974132e+08    13123.137    459.23025   0.32663117         2030 
    2040    5660.3866 2.5972257e+08 2.5974132e+08    13094.112    461.39504   0.32763502         2040 
    2050    5686.7504 2.5972257e+08 2.5974132e+08    13065.128    463.57483    0.3286372         2050 
    2060    5713.0232 2.5972257e+08 2.5974132e+08    13036.195    465.76853   0.32963742         2060 
    2070    5739.1943 2.5972257e+08 2.5974132e+08    13007.311    467.97776   0.33063578         2070 
    2080    5765.2858 2.5972258e+08 2.5974132e+08    12978.472    470.19531   0.33163243         2080 
    2090    5791.2992 2.5972258e+08 2.5974132e+08    12949.674    472.42138   0.33262757         2090 
    2100    5817.2233 2.5972258e+08 2.5974132e+08     12920.91     474.6594   0.33362138         2100 
    2110    5843.0729 2.5972259e+08 2.5974132e+08    12892.178    476.91248   0.33461405         2110 
    2120    5868.8694 2.5972259e+08 2.5974132e+08    12863.474    479.18007   0.33560572         2120 
    2130    5894.6205 2.5972259e+08 2.5974132e+08    12834.796    481.45962   0.33659642         2130 
    2140    5920.3011 2.5972259e+08 2.5974132e+08    12806.168    483.74823   0.33758543         2140 
    2150    5945.9112 2.597226e+08 2.5974132e+08    12777.594    486.05035    0.3385726         2150 
    2160    5971.4622 2.597226e+08 2.5974132e+08    12749.069    488.36922   0.33955809         2160 
    2170    5996.9418 2.597226e+08 2.5974132e+08     12720.59    490.70366   0.34054204         2170 
    2180    6022.3529 2.5972261e+08 2.5974132e+08    12692.153    493.05021    0.3415246         2180 
    2190    6047.7163 2.5972261e+08 2.5974132e+08    12663.754    495.40368   0.34250589         2190 
    2200    6073.0485 2.5972261e+08 2.5974132e+08    12635.391    497.76396   0.34348604         2200 
    2210    6098.3525 2.5972262e+08 2.5974132e+08     12607.06    500.12176   0.34446514         2210 
    2220     6123.612 2.5972262e+08 2.5974132e+08    12578.758    502.47743   0.34544327         2220 
    2230    6148.8261 2.5972262e+08 2.5974132e+08    12550.483    504.82211    0.3464205         2230 
    2240    6173.9904 2.5972262e+08 2.5974132e+08    12522.232    507.16052   0.34739689         2240 
    2250     6199.096 2.5972263e+08 2.5974132e+08    12494.003    509.49574    0.3483725         2250 
    2260    6224.1373 2.5972263e+08 2.5974132e+08    12465.792    511.82854   0.34934737         2260 
    2270    6249.1276 2.5972263e+08 2.5974132e+08    12437.599    514.15383   0.35032153         2270 
    2280    6274.0867 2.5972264e+08 2.5974132e+08    12409.422    516.46956   0.35129499         2280 
    2290    6298.9946 2.5972264e+08 2.5974132e+08    12381.259      518.782   0.35226777         2290 
    2300    6323.8424 2.5972264e+08 2.5974132e+08    12353.109    521.09199   0.35323985         2300 
    2310    6348.6225 2.5972265e+08 2.5974132e+08    12324.972    523.39065   0.35421124         2310 
    2320    6373.3449 2.5972265e+08 2.5974132e+08    12296.848    525.67913   0.35518191         2320 
    2330     6398.012 2.5972265e+08 2.5974132e+08    12268.735    527.96177   0.35615185         2330 
    2340    6422.6143 2.5972266e+08 2.5974132e+08    12240.634    530.23335   0.35712104         2340 
    2350    6447.1268 2.5972266e+08 2.5974132e+08    12212.546    532.49914   0.35808946         2350 
    2360    6471.5409 2.5972266e+08 2.5974132e+08    12184.469    534.76396    0.3590571         2360 
    2370    6495.8206 2.5972267e+08 2.5974132e+08    12156.406     537.0331   0.36002396         2370 
    2380     6519.952 2.5972267e+08 2.5974132e+08    12128.357     539.3014   0.36099004         2380 
    2390    6543.9257 2.5972268e+08 2.5974132e+08    12100.324    541.57296   0.36195531         2390 
    2400    6567.7424 2.5972268e+08 2.5974132e+08    12072.311    543.85451   0.36291977         2400 
    2410     6591.374 2.5972268e+08 2.5974132e+08     12044.32    546.15382   0.36388338         2410 
    2420    6614.7851 2.5972269e+08 2.5974132e+08    12016.356     548.4928   0.36484612         2420 
    2430    6637.9776 2.5972269e+08 2.5974132e+08    11988.421    550.88203   0.36580797         2430 
    2440    6660.9434 2.597227e+08 2.5974132e+08    11960.521    553.34251    0.3667689         2440 
    2450    6683.6196 2.597227e+08 2.5974132e+08    11932.659    555.90022    0.3677289         2450 
    2460     6705.814 2.5972271e+08 2.5974132e+08    11904.837    558.60954   0.36868795         2460 
    2470    6727.1965 2.5972272e+08 2.5974132e+08     11877.06    561.51614   0.36964605         2470 
    2480    6747.5169 2.5972272e+08 2.5974132e+08    11849.331    564.65036   0.37060317         2480 
    2490    6767.0862 2.5972273e+08 2.5974132e+08    11821.653    567.96877   0.37155932         2490 
    2500    6786.7241 2.5972274e+08 2.5974132e+08    11794.192    571.32571   0.37250888         2500 
    2510    6805.3662 2.5972275e+08 2.5974132e+08     11768.62    574.44874   0.37339403         2510 
    2520    6821.8506 2.5972275e+08 2.5974132e+08    11745.829    577.26183   0.37418367         2520 
    2530    6836.3058 2.5972276e+08 2.5974132e+08    11725.769    579.74841   0.37487922         2530 
    2540    6849.6157 2.5972276e+08 2.5974132e+08    11707.631    581.95506   0.37550853         2540 
    2550    6862.2786 2.5972277e+08 2.5974132e+08    11690.722    583.94742   0.37609555         2550 
    2560    6874.4243 2.5972277e+08 2.5974132e+08    11674.512    585.82684   0.37665862         2560 
    2570    6886.0885 2.5972278e+08 2.5974132e+08    11658.607     587.6873   0.37721138         2570 
    2580    6897.4007 2.5972278e+08 2.5974132e+08    11642.703    589.60455   0.37776435         2580 
    2590    6908.5324 2.5972279e+08 2.5974132e+08    11626.579      591.621   0.37832524         2590 
    2600    6919.6985 2.5972279e+08 2.5974132e+08    11610.183    593.73285   0.37889585         2600 
    2610    6930.6923 2.597228e+08 2.5974132e+08    11594.128    595.82934   0.37945489         2610 
    2620    6941.6408 2.597228e+08 2.5974132e+08    11578.442    597.87328   0.38000129         2620 
    2630    6952.5161 2.5972281e+08 2.5974132e+08    11563.037    599.87992   0.38053819         2630 
    2640    6963.1927 2.5972281e+08 2.5974132e+08    11547.819    601.87639   0.38106883         2640 
    2650    6973.6079 2.5972281e+08 2.5974132e+08     11532.69      603.884   0.38159664         2650 
    2660    6983.8165 2.5972282e+08 2.5974132e+08     11517.56     605.9221   0.38212474         2660 
    2670    6993.9729 2.5972282e+08 2.5974132e+08    11502.337    607.98664   0.38265635         2670 
    2680    7004.2462 2.5972283e+08 2.5974132e+08    11486.903    610.08866   0.38319565         2680 
    2690    7014.8344 2.5972283e+08 2.5974132e+08    11471.066    612.24092   0.38374929         2690 
    2700    7025.8723 2.5972284e+08 2.5974132e+08     11454.61    614.47535   0.38432491         2700 
    2710    7037.3035 2.5972285e+08 2.5974132e+08    11437.516    616.81977   0.38492325         2710 
    2720    7048.5017 2.5972285e+08 2.5974132e+08    11420.623    619.15883   0.38551489         2720 
    2730    7059.4858 2.5972286e+08 2.5974132e+08    11403.918    621.48662   0.38610035         2730 
    2740    7070.3755 2.5972286e+08 2.5974132e+08     11387.29     623.8167   0.38668349         2740 
    2750    7081.2986 2.5972287e+08 2.5974132e+08    11370.669    626.15605   0.38726681         2750 
    2760    7092.3029 2.5972287e+08 2.5974132e+08        11354     628.5283   0.38785218         2760 
    2770    7103.3725 2.5972288e+08 2.5974132e+08     11337.24     630.9443   0.38844119         2770 
    2780    7114.4924 2.5972289e+08 2.5974132e+08    11320.357    633.39597   0.38903494         2780 
    2790    7125.7314 2.5972289e+08 2.5974132e+08    11303.342    635.87279   0.38963378         2790 
    2800    7137.1592 2.597229e+08 2.5974132e+08    11286.211     638.3423   0.39023717         2800 
    2810    7148.7713 2.597229e+08 2.5974132e+08     11269.01    640.79246   0.39084351         2810 
    2820    7160.3988 2.5972291e+08 2.5974132e+08    11251.803    643.20888   0.39145053         2820 
    2830    7171.9051 2.5972291e+08 2.5974132e+08    11234.661    645.58098   0.39205573         2830 
    2840    7183.2048 2.5972292e+08 2.5974132e+08     11217.64    647.91293   0.39265718         2840 
    2850    7194.2677 2.5972293e+08 2.5974132e+08     11200.81    650.20791   0.39325238         2850 
    2860       7205.2 2.5972293e+08 2.5974132e+08    11184.115    652.47663    0.3938433         2860 
    2870    7216.0651 2.5972294e+08 2.5974132e+08    11167.519     654.7203   0.39443127         2870 
    2880    7226.8929 2.5972294e+08 2.5974132e+08     11151.04    656.93297   0.39501565         2880 
    2890    7237.7172 2.5972295e+08 2.5974132e+08    11134.655    659.12547   0.39559722         2890 
    2900    7248.5507 2.5972295e+08 2.5974132e+08    11118.339     661.2999   0.39617692         2900 
    2910    7259.3894 2.5972296e+08 2.5974132e+08    11102.056    663.46396   0.39675604         2910 
    2920    7270.2099 2.5972296e+08 2.5974132e+08    11085.762    665.62974   0.39733614         2920 
    2930    7281.0238 2.5972297e+08 2.5974132e+08    11069.415    667.80976   0.39791878         2930 
    2940    7291.8408 2.5972298e+08 2.5974132e+08    11052.971    670.01145   0.39850556         2940 
    2950     7302.701 2.5972298e+08 2.5974132e+08    11036.391    672.23484   0.39909789         2950 
    2960    7313.7082 2.5972299e+08 2.5974132e+08    11019.641     674.4676   0.39969705         2960 
    2970    7324.7207 2.5972299e+08 2.5974132e+08    11002.973    676.67276   0.40029409         2970 
    2980    7335.5655  2.59723e+08 2.5974132e+08    10986.638    678.80076   0.40087999         2980 
    2990    7346.2245  2.59723e+08 2.5974132e+08    10970.552     680.8712   0.40145777         2990 
    3000    7356.4031 2.5972301e+08 2.5974132e+08    10954.636    694.22463   0.40203023         3000 
    3010    7361.2859 2.5972302e+08 2.5974132e+08    10938.776    694.89289    0.4026017         3010 
    3020     7366.824 2.5972303e+08 2.5974132e+08    10922.863    696.06637   0.40317628         3020 
    3030    7372.7732 2.5972304e+08 2.5974132e+08    10906.802    697.51469   0.40375742         3030 
    3040    7379.0583 2.5972305e+08 2.5974132e+08    10890.482    699.14661   0.40434922         3040 
    3050    7385.6297 2.5972306e+08 2.5974132e+08    10873.797    700.91715   0.40495561         3050 
    3060    7392.4982 2.5972307e+08 2.5974132e+08    10856.671       702.79   0.40557945         3060 
    3070    7399.5368 2.5972308e+08 2.5974132e+08    10839.338    704.72399   0.40621234         3070 
    3080    7406.6099 2.5972309e+08 2.5974132e+08    10822.029    706.69959    0.4068459         3080 
    3090    7413.8056 2.597231e+08 2.5974132e+08    10804.687    708.66462   0.40748221         3090 
    3100    7421.0788 2.5972311e+08 2.5974132e+08    10787.265    710.63911   0.40812306         3100 
    3110    7428.4115 2.5972312e+08 2.5974132e+08    10769.731    712.60307    0.4087697         3110 
    3120     7435.811 2.5972313e+08 2.5974132e+08    10752.116    714.55121   0.40942104         3120 
    3130    7443.1743 2.5972314e+08 2.5974132e+08    10734.548    716.48999   0.41007236         3130 
    3140    7450.5238 2.5972315e+08 2.5974132e+08    10717.059    718.40392   0.41072259         3140 
    3150    7457.8622 2.5972316e+08 2.5974132e+08    10699.655    720.28978   0.41137143         3150 
    3160    7465.1855 2.5972317e+08 2.5974132e+08    10682.329    722.16246    0.4120192         3160 
    3170    7472.5145 2.5972318e+08 2.5974132e+08     10665.06    724.00765   0.41266672         3170 
    3180    7479.8726 2.5972319e+08 2.5974132e+08    10647.817    725.82995   0.41331517         3180 
    3190    7487.2556 2.597232e+08 2.5974132e+08    10630.562    727.64769   0.41396599         3190 
    3200    7494.6423 2.5972321e+08 2.5974132e+08    10613.255    729.47214   0.41462075         3200 
    3210    7502.0647 2.5972322e+08 2.5974132e+08    10595.858    731.29625   0.41528094         3210 
    3220     7509.542 2.5972323e+08 2.5974132e+08    10578.347    733.12481   0.41594762         3220 
    3230    7517.0044 2.5972324e+08 2.5974132e+08    10560.845    734.96839   0.41661612         3230 
    3240    7524.4295 2.5972325e+08 2.5974132e+08    10543.408    736.79208   0.41728434         3240 
    3250    7531.8247 2.5972326e+08 2.5974132e+08    10526.023    738.61202   0.41795279         3250 
    3260    7539.2062 2.5972327e+08 2.5974132e+08    10508.686    740.41371   0.41862169         3260 
    3270    7546.5892 2.5972328e+08 2.5974132e+08    10491.399    742.20067   0.41929094         3270 
    3280    7553.9628 2.5972329e+08 2.5974132e+08    10474.168    743.95579   0.41996035         3280 
    3290    7561.2911 2.597233e+08 2.5974132e+08    10456.999    745.69143   0.42062973         3290 
    3300    7568.5946 2.5972331e+08 2.5974132e+08    10439.896     747.3977   0.42129893         3300 
    3310    7575.9084 2.5972332e+08 2.5974132e+08    10422.857    749.06905   0.42196804         3310 
    3320    7583.1968 2.5972333e+08 2.5974132e+08    10405.878    750.72604   0.42263725         3320 
    3330     7590.448 2.5972334e+08 2.5974132e+08    10388.956    752.35646   0.42330667         3330 
    3340     7597.654 2.5972335e+08 2.5974132e+08    10372.093    753.97272    0.4239763         3340 
    3350     7604.849 2.5972336e+08 2.5974132e+08    10355.286    755.56089   0.42464623         3350 
    3360    7612.0433 2.5972337e+08 2.5974132e+08    10338.527    757.13788   0.42531684         3360 
    3370    7619.2183 2.5972338e+08 2.5974132e+08      10321.8    758.70583   0.42598879         3370 
    3380     7626.403 2.5972339e+08 2.5974132e+08    10305.085    760.25918   0.42666297         3380 
    3390     7633.604 2.597234e+08 2.5974132e+08    10288.355    761.80327   0.42734045         3390 
    3400    7640.8194 2.5972341e+08 2.5974132e+08    10271.585    763.34215   0.42802234         3400 
    3410    7648.0823 2.5972342e+08 2.5974132e+08     10254.75    764.86129   0.42870981         3410 
    3420     7655.335 2.5972343e+08 2.5974132e+08    10237.918    766.36601   0.42940012         3420 
    3430    7662.5261 2.5972344e+08 2.5974132e+08    10221.147    767.86152   0.43009088         3430 
    3440     7669.714 2.5972345e+08 2.5974132e+08     10204.44    769.32092    0.4307821         3440 
    3450    7676.8991 2.5972346e+08 2.5974132e+08    10187.795    770.76877   0.43147382         3450 
    3460    7684.0449 2.5972347e+08 2.5974132e+08    10171.212    772.18903   0.43216607         3460 
    3470    7691.1403 2.5972347e+08 2.5974132e+08    10154.692     773.5964   0.43285889         3470 
    3480    7698.1762 2.5972348e+08 2.5974132e+08    10138.233    774.98582   0.43355234         3480 
    3490    7705.1533 2.5972349e+08 2.5974132e+08    10121.836    776.36076   0.43424645         3490 
    3500    7712.0737 2.597235e+08 2.5974132e+08      10105.5    777.72194   0.43494129         3500 
    3510    7718.8914 2.5972351e+08 2.5974132e+08    10089.225    779.07398    0.4356369         3510 
    3520    7725.6292 2.5972352e+08 2.5974132e+08     10073.01    780.41585   0.43633332         3520 
    3530    7732.3246 2.5972353e+08 2.5974132e+08    10056.856    781.73939   0.43703058         3530 
    3540    7738.9426 2.5972354e+08 2.5974132e+08    10040.763    783.05538    0.4377287         3540 
    3550    7745.5006 2.5972355e+08 2.5974132e+08    10024.731    784.36248   0.43842766         3550 
    3560    7752.0228 2.5972356e+08 2.5974132e+08    10008.764    785.66195   0.43912743         3560 
    3570    7758.4993 2.5972357e+08 2.5974132e+08    9992.8632    786.95185   0.43982792         3570 
    3580    7764.9374 2.5972358e+08 2.5974132e+08    9977.0356    788.22257   0.44052884         3580 
    3590    7771.3596 2.5972359e+08 2.5974132e+08    9961.2786     789.4811   0.44123037         3590 
    3600    7777.7356 2.597236e+08 2.5974132e+08    9945.5873     790.7285   0.44193273         3600 
    3610    7784.0465 2.5972361e+08 2.5974132e+08    9929.9667    791.96173   0.44263574         3610 
    3620     7790.334 2.5972362e+08 2.5974132e+08     9914.419    793.16168   0.44333934         3620 
    3630    7796.5737 2.5972363e+08 2.5974132e+08    9898.9449    794.34088   0.44404352         3630 
    3640    7802.7435 2.5972363e+08 2.5974132e+08     9883.545    795.49891   0.44474828         3640 
    3650    7808.8779 2.5972364e+08 2.5974132e+08      9868.22    796.62834    0.4454536         3650 
    3660    7815.0074 2.5972365e+08 2.5974132e+08    9852.9705      797.725   0.44615949         3660 
    3670    7821.1103 2.5972366e+08 2.5974132e+08    9837.7969    798.79655   0.44686595         3670 
    3680    7827.1833 2.5972367e+08 2.5974132e+08    9822.6997    799.83838   0.44757296         3680 
    3690    7833.2483 2.5972368e+08 2.5974132e+08    9807.6795    800.85724   0.44828053         3690 
    3700    7839.3011 2.5972369e+08 2.5974132e+08    9792.7367    801.84668   0.44898866         3700 
    3710    7845.3176 2.597237e+08 2.5974132e+08    9777.8717    802.82562   0.44969735         3710 
    3720    7851.2998 2.5972371e+08 2.5974132e+08    9763.0851    803.77816   0.45040659         3720 
    3730    7857.2254 2.5972372e+08 2.5974132e+08    9748.3772    804.71244   0.45111638         3730 
    3740    7863.0832 2.5972372e+08 2.5974132e+08    9733.7484    805.64329   0.45182673         3740 
    3750    7868.9268 2.5972373e+08 2.5974132e+08    9719.1991    806.52694   0.45253763         3750 
    3760    7874.7511 2.5972374e+08 2.5974132e+08    9704.7298    807.38902   0.45324909         3760 
    3770    7880.5347 2.5972375e+08 2.5974132e+08    9690.3408    808.23318   0.45396109         3770 
    3780    7886.3093 2.5972376e+08 2.5974132e+08    9676.0328    809.03317   0.45467365         3780 
    3790    7892.0498 2.5972377e+08 2.5974132e+08     9661.806       809.81   0.45538676         3790 
    3800    7897.7113 2.5972378e+08 2.5974132e+08    9647.6607    810.57173   0.45610043         3800 
    3810    7903.3272 2.5972378e+08 2.5974132e+08    9633.5974    811.30731   0.45681464         3810 
    3820    7908.9174 2.5972379e+08 2.5974132e+08    9619.6168    812.02988   0.45752941         3820 
    3830    7914.4764 2.597238e+08 2.5974132e+08    9605.7194    812.72982   0.45824473         3830 
    3840    7920.0097 2.5972381e+08 2.5974132e+08    9591.9057    813.41634   0.45896061         3840 
    3850    7925.5065 2.5972382e+08 2.5974132e+08    9578.1762    814.09239   0.45967704         3850 
    3860    7930.9712 2.5972383e+08 2.5974132e+08    9564.5318    814.75413   0.46039403         3860 
    3870    7936.4324 2.5972383e+08 2.5974132e+08    9550.9731    815.41047   0.46111157         3870 
    3880    7941.9047 2.5972384e+08 2.5974132e+08    9537.5007    816.05398   0.46182967         3880 
    3890    7947.3632 2.5972385e+08 2.5974132e+08    9524.1154    816.69464   0.46254833         3890 
    3900    7952.8036 2.5972386e+08 2.5974132e+08    9510.8178    817.33174   0.46326754         3900 
    3910      7958.25 2.5972386e+08 2.5974132e+08    9497.6087    817.95568   0.46398731         3910 
    3920    7963.7162 2.5972387e+08 2.5974132e+08    9484.4888    818.56577   0.46470764         3920 
    3930    7969.1655 2.5972388e+08 2.5974132e+08     9471.459    819.16517   0.46542853         3930 
    3940    7974.5976 2.5972389e+08 2.5974132e+08    9458.5201    819.75263   0.46614998         3940 
    3950     7980.053 2.5972389e+08 2.5974132e+08    9445.6728     820.3214   0.46687199         3950 
    3960     7985.538 2.597239e+08 2.5974132e+08    9432.9182    820.88598   0.46759456         3960 
    3970     7991.033 2.5972391e+08 2.5974132e+08     9420.257    821.44419   0.46831769         3970 
    3980    7996.5161 2.5972392e+08 2.5974132e+08    9407.6899    821.98652   0.46904139         3980 
    3990    8001.9766 2.5972392e+08 2.5974132e+08    9395.2178    822.52927   0.46976565         3990 
    4000    8007.4911 2.5972393e+08 2.5974132e+08    9382.8414    823.05667   0.47049047         4000 
    4010    8013.0959 2.5972394e+08 2.5974132e+08    9370.5616     823.5649   0.47121587         4010 
    4020    8018.7272 2.5972394e+08 2.5974132e+08     9358.379    824.07606   0.47194183         4020 
    4030    8024.3796 2.5972395e+08 2.5974132e+08    9346.2941    824.57696   0.47266837         4030 
    4040    8030.0812 2.5972396e+08 2.5974132e+08    9334.3076    825.05577   0.47339547         4040 
    4050    8035.8272 2.5972396e+08 2.5974132e+08    9322.4201    825.51818   0.47412315         4050 
    4060    8041.5925 2.5972397e+08 2.5974132e+08    9310.6322     825.9647    0.4748514         4060 
    4070    8047.3796 2.5972397e+08 2.5974132e+08    9298.9445    826.38638   0.47558023         4070 
    4080    8053.1965 2.5972398e+08 2.5974132e+08    9287.3574    826.77875   0.47630964         4080 
    4090    8059.0233 2.5972399e+08 2.5974132e+08    9275.8714    827.14529   0.47703962         4090 
    4100    8064.8541 2.5972399e+08 2.5974132e+08    9264.4868    827.49618   0.47777018         4100 
    4110    8070.7159  2.59724e+08 2.5974132e+08    9253.2042    827.81663   0.47850132         4110 
    4120    8076.6099  2.59724e+08 2.5974132e+08    9242.0239    828.11029   0.47923305         4120 
    4130    8082.5191 2.5972401e+08 2.5974132e+08     9230.946    828.40291   0.47996535         4130 
    4140    8088.4757 2.5972401e+08 2.5974132e+08     9219.971    828.67793   0.48069824         4140 
    4150    8094.4778 2.5972402e+08 2.5974132e+08    9209.0991    828.94006   0.48143171         4150 
    4160    8100.4731 2.5972402e+08 2.5974132e+08    9198.3305    829.19721   0.48216577         4160 
    4170     8106.478 2.5972403e+08 2.5974132e+08    9187.6652    829.44035   0.48290041         4170 
    4180     8112.564 2.5972403e+08 2.5974132e+08    9177.1037    829.64417   0.48363564         4180 
    4190     8118.696 2.5972404e+08 2.5974132e+08    9166.6488    829.81678   0.48437126         4190 
    4200    8124.7983 2.5972404e+08 2.5974132e+08    9156.3111    829.97087   0.48510649         4200 
    4210     8130.904 2.5972404e+08 2.5974132e+08    9146.0898    830.08394   0.48584138         4210 
    4220     8137.034 2.5972405e+08 2.5974132e+08    9135.9827    830.15801   0.48657605         4220 
    4230    8143.1724 2.5972405e+08 2.5974132e+08    9125.9968    830.21204   0.48730995         4230 
    4240    8149.3157 2.5972406e+08 2.5974132e+08    9116.1307    830.21982   0.48804316         4240 
    4250    8155.4466 2.5972406e+08 2.5974132e+08    9106.3787    830.19451   0.48877605         4250 
    4260     8161.572 2.5972406e+08 2.5974132e+08    9096.7367    830.12756   0.48950891         4260 
    4270    8167.6991 2.5972407e+08 2.5974132e+08    9087.2021    829.99998   0.49024193         4270 
    4280    8173.8017 2.5972407e+08 2.5974132e+08    9077.7731     829.8338   0.49097522         4280 
    4290    8179.9047 2.5972407e+08 2.5974132e+08     9068.449    829.61909   0.49170884         4290 
    4300    8186.0255 2.5972408e+08 2.5974132e+08    9059.2296    829.33689    0.4924428         4300 
    4310    8192.1093 2.5972408e+08 2.5974132e+08    9050.1145    829.00981   0.49317712         4310 
    4320    8198.1436 2.5972408e+08 2.5974132e+08    9041.1036    828.63227   0.49391179         4320 
    4330    8204.1831 2.5972408e+08 2.5974132e+08    9032.1961    828.18849   0.49464686         4330 
    4340    8210.2335 2.5972409e+08 2.5974132e+08    9023.3912    827.70604    0.4953824         4340 
    4350    8216.2578 2.5972409e+08 2.5974132e+08    9014.6915    827.16926   0.49611817         4350 
    4360    8222.2427 2.5972409e+08 2.5974132e+08    9006.0969    826.58031   0.49685415         4360 
    4370    8228.1667 2.5972409e+08 2.5974132e+08    8997.6045    825.95317   0.49759056         4370 
    4380    8234.0601 2.597241e+08 2.5974132e+08    8989.2129    825.28129   0.49832752         4380 
    4390    8239.9611 2.597241e+08 2.5974132e+08    8980.9267    824.55518   0.49906463         4390 
    4400    8245.8164 2.597241e+08 2.5974132e+08    8972.7484    823.78798   0.49980163         4400 
    4410    8251.5937 2.597241e+08 2.5974132e+08    8964.6758      822.985    0.5005387         4410 
    4420    8257.3614 2.5972411e+08 2.5974132e+08    8956.7068    822.12572   0.50127601         4420 
    4430    8263.1647 2.5972411e+08 2.5974132e+08    8948.8394    821.21203   0.50201374         4430 
    4440    8268.9619 2.5972411e+08 2.5974132e+08    8941.0718    820.26535   0.50275202         4440 
    4450    8274.7535 2.5972411e+08 2.5974132e+08    8933.4024    819.26679     0.503491         4450 
    4460    8280.5574 2.5972411e+08 2.5974132e+08    8925.8301    818.21709   0.50423076         4460 
    4470    8286.3493 2.5972412e+08 2.5974132e+08    8918.3551    817.12403   0.50497126         4470 
    4480    8292.1256 2.5972412e+08 2.5974132e+08    8910.9796    815.98673   0.50571225         4480 
    4490    8297.9029 2.5972412e+08 2.5974132e+08    8903.7021    814.80572   0.50645385         4490 
    4500    8303.6864 2.5972412e+08 2.5974132e+08    8896.5221    813.59116   0.50719608         4500 
    4510    8309.4624 2.5972412e+08 2.5974132e+08    8889.4428    812.33113   0.50793856         4510 
    4520    8315.2142 2.5972412e+08 2.5974132e+08     8882.463    811.03134   0.50868135         4520 
    4530    8320.9468 2.5972412e+08 2.5974132e+08    8875.5806    809.68952   0.50942461         4530 
    4540    8326.6766 2.5972413e+08 2.5974132e+08    8868.7941    808.29912   0.51016844         4540 
    4550    8332.3834 2.5972413e+08 2.5974132e+08    8862.1024    806.87479   0.51091292         4550 
    4560    8338.0446 2.5972413e+08 2.5974132e+08    8855.5052    805.41246   0.51165799         4560 
    4570    8343.6609 2.5972413e+08 2.5974132e+08    8849.0063    803.91097   0.51240316         4570 
    4580    8349.2177 2.5972413e+08 2.5974132e+08     8842.605    802.37788   0.51314841         4580 
    4590    8354.7269 2.5972413e+08 2.5974132e+08    8836.3003    800.81749   0.51389379         4590 
    4600    8360.2322 2.5972413e+08 2.5974132e+08    8830.0909    799.21134   0.51463935         4600 
    4610    8365.7269 2.5972413e+08 2.5974132e+08    8823.9757    797.56811   0.51538516         4610 
    4620    8371.1983 2.5972413e+08 2.5974132e+08    8817.9534    795.88607   0.51613128         4620 
    4630    8376.6577 2.5972413e+08 2.5974132e+08    8812.0226      794.154   0.51687777         4630 
    4640    8382.1035 2.5972413e+08 2.5974132e+08    8806.1822    792.38766    0.5176247         4640 
    4650    8387.5599 2.5972413e+08 2.5974132e+08    8800.4311     790.5772   0.51837212         4650 
    4660    8393.0338 2.5972413e+08 2.5974132e+08    8794.7683    788.72016   0.51912007         4660 
    4670    8398.4935 2.5972413e+08 2.5974132e+08    8789.1929    786.84289   0.51986862         4670 
    4680    8403.9457 2.5972413e+08 2.5974132e+08    8783.7038    784.93607   0.52061782         4680 
    4690    8409.4309 2.5972413e+08 2.5974132e+08     8778.302    782.98355   0.52136749         4690 
    4700    8414.9091 2.5972413e+08 2.5974132e+08    8772.9891    780.99157   0.52211731         4700 
    4710    8420.3143 2.5972413e+08 2.5974132e+08    8767.7645    778.97873   0.52286725         4710 
    4720    8425.6799 2.5972413e+08 2.5974132e+08    8762.6276     776.9211   0.52361729         4720 
    4730    8431.0479 2.5972413e+08 2.5974132e+08    8757.5779    774.81182   0.52436743         4730 
    4740    8436.4054 2.5972413e+08 2.5974132e+08    8752.6154    772.67112   0.52511756         4740 
    4750    8441.7316 2.5972413e+08 2.5974132e+08    8747.7408    770.48384    0.5258674         4750 
    4760    8447.0007 2.5972413e+08 2.5974132e+08    8742.9528    768.25448   0.52661705         4760 
    4770    8452.2068 2.5972413e+08 2.5974132e+08    8738.2495    765.98905    0.5273666         4770 
    4780    8457.3931 2.5972413e+08 2.5974132e+08    8733.6298    763.66718   0.52811614         4780 
    4790    8462.5693 2.5972413e+08 2.5974132e+08    8729.0923    761.28883   0.52886574         4790 
    4800    8467.6828 2.5972413e+08 2.5974132e+08    8724.6357    758.87255   0.52961547         4800 
    4810    8472.7138 2.5972413e+08 2.5974132e+08    8720.2586    756.41734    0.5303654         4810 
    4820    8477.6876 2.5972413e+08 2.5974132e+08    8715.9601    753.91539   0.53111556         4820 
    4830    8482.6243 2.5972413e+08 2.5974132e+08    8711.7392    751.37478   0.53186599         4830 
    4840    8487.5316 2.5972413e+08 2.5974132e+08    8707.5949    748.78868   0.53261672         4840 
    4850    8492.4045 2.5972412e+08 2.5974132e+08    8703.5263    746.16518   0.53336777         4850 
    4860    8497.2346 2.5972412e+08 2.5974132e+08    8699.5326    743.50757   0.53411914         4860 
    4870    8502.0485 2.5972412e+08 2.5974132e+08     8695.613    740.80368   0.53487087         4870 
    4880    8506.8442 2.5972412e+08 2.5974132e+08    8691.7666    738.05291   0.53562296         4880 
    4890    8511.5795 2.5972412e+08 2.5974132e+08    8687.9925     735.2663   0.53637545         4890 
    4900    8516.2683 2.5972412e+08 2.5974132e+08      8684.29    732.44366   0.53712834         4900 
    4910    8520.9587 2.5972412e+08 2.5974132e+08    8680.6586    729.56603   0.53788166         4910 
    4920    8525.6308 2.5972412e+08 2.5974132e+08    8677.0976     726.6449   0.53863544         4920 
    4930    8530.2314 2.5972412e+08 2.5974132e+08    8673.6061    723.69813   0.53938973         4930 
    4940    8534.7616 2.5972412e+08 2.5974132e+08    8670.1834    720.72194    0.5401446         4940 
    4950     8539.242 2.5972411e+08 2.5974132e+08    8666.8286    717.70203   0.54090011         4950 
    4960    8543.6808 2.5972411e+08 2.5974132e+08    8663.5411     714.6575   0.54165631         4960 
    4970    8548.0677 2.5972411e+08 2.5974132e+08    8660.3213    711.58585   0.54241299         4970 
    4980    8552.3892 2.5972411e+08 2.5974132e+08    8657.1694    708.49062      0.54317         4980 
    4990    8556.6472 2.5972411e+08 2.5974132e+08    8654.0848    705.37392   0.54392732         4990 
    5000    8561.0066 2.5972411e+08 2.5974132e+08    8651.0668    694.93034   0.54468497         5000 
    5010    8568.2578 2.597241e+08 2.5974132e+08    8648.1119    692.12739   0.54544276         5010 
    5020    8575.4655 2.597241e+08 2.5974132e+08    8645.2173    689.29737   0.54620052         5020 
    5030    8582.5628 2.597241e+08 2.5974132e+08    8642.3837    686.42531   0.54695798         5030 
    5040    8589.5285 2.5972409e+08 2.5974132e+08    8639.6113    683.49815   0.54771513         5040 
    5050    8596.3643 2.5972409e+08 2.5974132e+08    8636.8998    680.51847   0.54847208         5050 
    5060    8603.0795 2.5972408e+08 2.5974132e+08     8634.249    677.48793   0.54922891         5060 
    5070    8609.6725 2.5972408e+08 2.5974132e+08    8631.6589    674.41734   0.54998567         5070 
    5080    8616.1333 2.5972408e+08 2.5974132e+08    8629.1294    671.32428   0.55074239         5080 
    5090    8622.4522 2.5972407e+08 2.5974132e+08    8626.6604    668.22321    0.5514991         5090 
    5100     8628.625 2.5972407e+08 2.5974132e+08    8624.2516    665.12603    0.5522558         5100 
    5110    8634.6609 2.5972406e+08 2.5974132e+08    8621.9026    662.04404   0.55301252         5110 
    5120    8640.5675 2.5972406e+08 2.5974132e+08    8619.6129    658.97628   0.55376931         5120 
    5130     8646.356 2.5972406e+08 2.5974132e+08    8617.3818     655.9303   0.55452622         5130 
    5140    8652.0429 2.5972405e+08 2.5974132e+08    8615.2086    652.90072   0.55528334         5140 
    5150    8657.6287 2.5972405e+08 2.5974132e+08    8613.0925    649.88509   0.55604077         5150 
    5160    8663.0977 2.5972405e+08 2.5974132e+08    8611.0326    646.88742   0.55679861         5160 
    5170    8668.4563 2.5972404e+08 2.5974132e+08     8609.028    643.90856   0.55755696         5170 
    5180    8673.7075 2.5972404e+08 2.5974132e+08    8607.0781    640.95131   0.55831586         5180 
    5190    8678.8388 2.5972404e+08 2.5974132e+08    8605.1827    638.03083    0.5590751         5190 
    5200     8683.859 2.5972403e+08 2.5974132e+08    8603.3413    635.14351   0.55983465         5200 
    5210    8688.7786 2.5972403e+08 2.5974132e+08    8601.5531    632.28717   0.56059455         5210 
    5220    8693.5846 2.5972403e+08 2.5974132e+08    8599.8177    629.46379   0.56135482         5220 
    5230    8698.2715 2.5972402e+08 2.5974132e+08    8598.1342    626.67402   0.56211549         5230 
    5240     8702.853 2.5972402e+08 2.5974132e+08    8596.5021    623.90823   0.56287662         5240 
    5250    8707.3349 2.5972402e+08 2.5974132e+08    8594.9207    621.16189   0.56363824         5250 
    5260    8711.7067 2.5972402e+08 2.5974132e+08    8593.3893    618.43568   0.56440044         5260 
    5270    8715.9772 2.5972401e+08 2.5974132e+08     8591.907    615.72793   0.56516327         5270 
    5280    8720.1563 2.5972401e+08 2.5974132e+08    8590.4732    613.03389   0.56592679         5280 
    5290    8724.2187 2.5972401e+08 2.5974132e+08     8589.087    610.35823   0.56669101         5290 
    5300    8728.1637  2.59724e+08 2.5974132e+08    8587.7479    607.70185   0.56745583         5300 
    5310    8732.0192  2.59724e+08 2.5974132e+08    8586.4568      605.061   0.56822029         5310 
    5320    8735.7824  2.59724e+08 2.5974132e+08    8585.2129     602.4456   0.56898423         5320 
    5330    8739.4411  2.59724e+08 2.5974132e+08    8584.0149    599.85911   0.56974792         5330 
    5340    8742.9987 2.5972399e+08 2.5974132e+08    8582.8618    597.29494   0.57051152         5340 
    5350    8746.4397 2.5972399e+08 2.5974132e+08    8581.7526    594.75655   0.57127509         5350 
    5360    8749.7512 2.5972399e+08 2.5974132e+08    8580.6866    592.25341   0.57203861         5360 
    5370    8752.9546 2.5972399e+08 2.5974132e+08     8579.663    589.78199   0.57280206         5370 
    5380    8756.0629 2.5972399e+08 2.5974132e+08    8578.6813    587.34139    0.5735654         5380 
    5390    8759.0577 2.5972398e+08 2.5974132e+08    8577.7407     584.9389   0.57432864         5390 
    5400      8761.95 2.5972398e+08 2.5974132e+08    8576.8406    582.57122    0.5750918         5400 
    5410    8764.7884 2.5972398e+08 2.5974132e+08    8575.9802    580.22281   0.57585496         5410 
    5420    8767.5644 2.5972398e+08 2.5974132e+08     8575.159    577.89124   0.57661825         5420 
    5430    8770.2349 2.5972398e+08 2.5974132e+08    8574.3762    575.58105    0.5773818         5430 
    5440    8772.8015 2.5972397e+08 2.5974132e+08    8573.6313    573.28546   0.57814577         5440 
    5450    8775.2925 2.5972397e+08 2.5974132e+08    8572.9238    570.99888   0.57891023         5450 
    5460    8777.7046 2.5972397e+08 2.5974132e+08    8572.2533    568.72645   0.57967524         5460 
    5470    8780.0212 2.5972397e+08 2.5974132e+08    8571.6195    566.47048   0.58044083         5470 
    5480    8782.2551 2.5972397e+08 2.5974132e+08     8571.022     564.2302   0.58120701         5480 
    5490    8784.4445 2.5972397e+08 2.5974132e+08    8570.4605    562.00988   0.58197379         5490 
    5500    8786.5846 2.5972396e+08 2.5974132e+08    8569.9348    559.81269   0.58274113         5500 
    5510    8788.6284 2.5972396e+08 2.5974132e+08    8569.4445    557.64293   0.58350896         5510 
    5520     8790.573 2.5972396e+08 2.5974132e+08    8568.9891    555.49934   0.58427722         5520 
    5530    8792.4419 2.5972396e+08 2.5974132e+08    8568.5683    553.37864   0.58504581         5530 
    5540    8794.2339 2.5972396e+08 2.5974132e+08    8568.1816    551.28836   0.58581463         5540 
    5550    8795.9349 2.5972396e+08 2.5974132e+08    8567.8285    549.23244   0.58658358         5550 
    5560    8797.5532 2.5972396e+08 2.5974132e+08    8567.5084    547.20793   0.58735255         5560 
    5570    8799.1001 2.5972395e+08 2.5974132e+08    8567.2206    545.21684   0.58812151         5570 
    5580    8800.6008 2.5972395e+08 2.5974132e+08    8566.9643    543.25593   0.58889047         5580 
    5590    8802.0654 2.5972395e+08 2.5974132e+08    8566.7387    541.32165    0.5896595         5590 
    5600    8803.4726 2.5972395e+08 2.5974132e+08    8566.5431    539.42002   0.59042867         5600 
    5610    8804.8225 2.5972395e+08 2.5974132e+08    8566.3766    537.54954   0.59119808         5610 
    5620    8806.1273 2.5972395e+08 2.5974132e+08    8566.2384    535.70696   0.59196783         5620 
    5630    8807.3761 2.5972395e+08 2.5974132e+08    8566.1276     533.8929   0.59273802         5630 
    5640    8808.5574 2.5972395e+08 2.5974132e+08    8566.0436    532.10714   0.59350875         5640 
    5650    8809.6729 2.5972395e+08 2.5974132e+08    8565.9853    530.34577   0.59428013         5650 
    5660    8810.7338 2.5972394e+08 2.5974132e+08     8565.952    528.61051   0.59505218         5660 
    5670    8811.7544 2.5972394e+08 2.5974132e+08     8565.943    526.89809   0.59582493         5670 
    5680    8812.7303 2.5972394e+08 2.5974132e+08    8565.9573    525.20642   0.59659842         5680 
    5690    8813.6552 2.5972394e+08 2.5974132e+08    8565.9942    523.53773   0.59737269         5690 
    5700    8814.5365 2.5972394e+08 2.5974132e+08    8566.0528    521.88883   0.59814781         5700 
    5710    8815.3828 2.5972394e+08 2.5974132e+08    8566.1324    520.26047   0.59892383         5710 
    5720    8816.1829 2.5972394e+08 2.5974132e+08    8566.2321    518.65432    0.5997008         5720 
    5730     8816.906 2.5972394e+08 2.5974132e+08    8566.3511    517.07477   0.60047872         5730 
    5740    8817.5328 2.5972394e+08 2.5974132e+08    8566.4884    515.52469   0.60125736         5740 
    5750    8818.0767 2.5972394e+08 2.5974132e+08    8566.6432    514.00732   0.60203637         5750 
    5760    8818.5648 2.5972394e+08 2.5974132e+08    8566.8144    512.52148   0.60281584         5760 
    5770    8819.0042 2.5972393e+08 2.5974132e+08    8567.0015    511.06894   0.60359554         5770 
    5780    8819.3965 2.5972393e+08 2.5974132e+08    8567.2034    509.65737   0.60437542         5780 
    5790    8819.7347 2.5972393e+08 2.5974132e+08    8567.4196    508.28424   0.60515547         5790 
    5800    8820.0159 2.5972393e+08 2.5974132e+08    8567.6492    506.95222   0.60593574         5800 
    5810     8820.247 2.5972393e+08 2.5974132e+08    8567.8915    505.66004   0.60671614         5810 
    5820    8820.4167 2.5972393e+08 2.5974132e+08    8568.1459    504.40413   0.60749655         5820 
    5830     8820.515 2.5972393e+08 2.5974132e+08    8568.4118    503.18789    0.6082771         5830 
    5840    8820.5588 2.5972393e+08 2.5974132e+08    8568.6885    502.01365   0.60905793         5840 
    5850    8820.5605 2.5972393e+08 2.5974132e+08    8568.9756    500.87238   0.60983925         5850 
    5860    8820.5018 2.5972393e+08 2.5974132e+08    8569.2726    499.76621   0.61062125         5860 
    5870    8820.3613 2.5972393e+08 2.5974132e+08    8569.5787    498.70267   0.61140361         5870 
    5880    8820.1502 2.5972393e+08 2.5974132e+08    8569.8933    497.67512   0.61218624         5880 
    5890    8819.8878 2.5972393e+08 2.5974132e+08    8570.2159    496.68115   0.61296925         5890 
    5900      8819.58 2.5972393e+08 2.5974132e+08    8570.5458    495.72351   0.61375275         5900 
    5910    8819.2371 2.5972393e+08 2.5974132e+08    8570.8828    494.79882   0.61453681         5910 
    5920    8818.8715 2.5972393e+08 2.5974132e+08    8571.2263    493.90548   0.61532151         5920 
    5930     8818.474 2.5972393e+08 2.5974132e+08    8571.5759    493.04384    0.6161069         5930 
    5940    8818.0421 2.5972393e+08 2.5974132e+08    8571.9311    492.21491   0.61689301         5940 
    5950    8817.5901 2.5972393e+08 2.5974132e+08    8572.2915    491.41298   0.61767985         5950 
    5960    8817.1102 2.5972393e+08 2.5974132e+08    8572.6568    490.64231   0.61846744         5960 
    5970    8816.5887 2.5972393e+08 2.5974132e+08    8573.0264    489.91061   0.61925575         5970 
    5980    8816.0442 2.5972393e+08 2.5974132e+08    8573.3999     489.2093   0.62004477         5980 
    5990    8815.4765 2.5972393e+08 2.5974132e+08     8573.777    488.54257   0.62083447         5990 
    6000    8814.8663 2.5972393e+08 2.5974132e+08    8574.1571    487.91209   0.62162483         6000 
    6010    8814.2116 2.5972393e+08 2.5974132e+08      8574.54     487.3112    0.6224158         6010 
    6020    8813.5131 2.5972393e+08 2.5974132e+08     8574.925    486.73825   0.62320735         6020 
    6030     8812.768 2.5972393e+08 2.5974132e+08     8575.312    486.19137   0.62399947         6030 
    6040    8811.9899 2.5972393e+08 2.5974132e+08    8575.7007     485.6616   0.62479215         6040 
    6050    8811.1702 2.5972393e+08 2.5974132e+08    8576.0908    485.14736   0.62558538         6050 
    6060    8810.2934 2.5972393e+08 2.5974132e+08    8576.4819    484.65305    0.6263792         6060 
    6070    8809.3694 2.5972393e+08 2.5974132e+08    8576.8739    484.17774   0.62717361         6070 
    6080    8808.4129 2.5972394e+08 2.5974132e+08    8577.2666    483.71984   0.62796868         6080 
    6090    8807.4109 2.5972394e+08 2.5974132e+08    8577.6598    483.28864   0.62876444         6090 
    6100    8806.3589 2.5972394e+08 2.5974132e+08    8578.0531    482.89083   0.62956081         6100 
    6110    8805.2744 2.5972394e+08 2.5974132e+08    8578.4464    482.51838    0.6303577         6110 
    6120    8804.1647 2.5972394e+08 2.5974132e+08    8578.8395    482.17451   0.63115516         6120 
    6130    8803.0252 2.5972394e+08 2.5974132e+08    8579.2324    481.86028   0.63195327         6130 
    6140    8801.8599 2.5972394e+08 2.5974132e+08    8579.6249    481.57296   0.63275206         6140 
    6150    8800.6756 2.5972394e+08 2.5974132e+08    8580.0169    481.30443   0.63355154         6150 
    6160    8799.4598 2.5972394e+08 2.5974132e+08    8580.4083    481.05317   0.63435169         6160 
    6170    8798.2088 2.5972394e+08 2.5974132e+08    8580.7989    480.81689    0.6351525         6170 
    6180    8796.9328 2.5972394e+08 2.5974132e+08    8581.1887    480.59345   0.63595392         6180 
    6190    8795.6379 2.5972394e+08 2.5974132e+08    8581.5776    480.38839    0.6367559         6190 
    6200    8794.3294 2.5972394e+08 2.5974132e+08    8581.9654    480.20363   0.63755832         6200 
    6210    8793.0192 2.5972395e+08 2.5974132e+08    8582.3519    480.03931   0.63836092         6210 
    6220    8791.7036 2.5972395e+08 2.5974132e+08     8582.737    479.89869   0.63916377         6220 
    6230    8790.3718 2.5972395e+08 2.5974132e+08    8583.1207     479.7863   0.63996695         6230 
    6240    8789.0251 2.5972395e+08 2.5974132e+08    8583.5028    479.69367   0.64077056         6240 
    6250    8787.6715 2.5972395e+08 2.5974132e+08    8583.8834    479.61683   0.64157469         6250 
    6260    8786.3051 2.5972395e+08 2.5974132e+08    8584.2622    479.56151   0.64237937         6260 
    6270    8784.9176 2.5972395e+08 2.5974132e+08     8584.639    479.52548    0.6431844         6270 
    6280    8783.5177 2.5972395e+08 2.5974132e+08    8585.0134    479.49839   0.64398975         6280 
    6290       8782.1 2.5972395e+08 2.5974132e+08    8585.3853    479.47573   0.64479543         6290 
    6300    8780.6305 2.5972395e+08 2.5974132e+08    8585.7544    479.46402   0.64560149         6300 
    6310    8779.1174 2.5972396e+08 2.5974132e+08    8586.1202    479.46509   0.64640797         6310 
    6320    8777.5949 2.5972396e+08 2.5974132e+08    8586.4826    479.46788   0.64721492         6320 
    6330    8776.0648 2.5972396e+08 2.5974132e+08    8586.8412    479.47925   0.64802239         6330 
    6340    8774.5199 2.5972396e+08 2.5974132e+08    8587.1959    479.51515   0.64883044         6340 
    6350    8772.9845 2.5972396e+08 2.5974132e+08    8587.5462    479.57186     0.649639         6350 
    6360    8771.4882 2.5972396e+08 2.5974132e+08     8587.892    479.64337   0.65044789         6360 
    6370    8770.0222 2.5972396e+08 2.5974132e+08    8588.2331    479.73161   0.65125717         6370 
    6380    8768.5505 2.5972396e+08 2.5974132e+08    8588.5693    479.83682   0.65206693         6380 
    6390    8767.0596 2.5972396e+08 2.5974132e+08    8588.9003    479.95252   0.65287727         6390 
    6400    8765.5658 2.5972397e+08 2.5974132e+08    8589.2259    480.06811   0.65368826         6400 
    6410    8764.0766 2.5972397e+08 2.5974132e+08    8589.5461    480.18372   0.65449995         6410 
    6420    8762.5749 2.5972397e+08 2.5974132e+08    8589.8605     480.2981   0.65531238         6420 
    6430    8761.0564 2.5972397e+08 2.5974132e+08    8590.1689    480.41218   0.65612548         6430 
    6440    8759.5349 2.5972397e+08 2.5974132e+08    8590.4712    480.52662   0.65693915         6440 
    6450    8758.0159 2.5972397e+08 2.5974132e+08    8590.7672    480.64206   0.65775342         6450 
    6460    8756.4892 2.5972397e+08 2.5974132e+08    8591.0566    480.76267   0.65856831         6460 
    6470    8754.9503 2.5972397e+08 2.5974132e+08    8591.3393    480.89019   0.65938385         6470 
    6480    8753.4034 2.5972398e+08 2.5974132e+08    8591.6153    481.02267   0.66020008         6480 
    6490    8751.8527 2.5972398e+08 2.5974132e+08    8591.8843     481.1563   0.66101698         6490 
    6500    8750.2967 2.5972398e+08 2.5974132e+08    8592.1463    481.29203   0.66183457         6500 
    6510    8748.7335 2.5972398e+08 2.5974132e+08    8592.4013    481.42749   0.66265283         6510 
    6520    8747.1629 2.5972398e+08 2.5974132e+08    8592.6492    481.56245   0.66347175         6520 
    6530    8745.5827 2.5972398e+08 2.5974132e+08    8592.8902    481.69741    0.6642913         6530 
    6540         8744 2.5972398e+08 2.5974132e+08    8593.1243    481.82969   0.66511146         6540 
    6550    8742.4188 2.5972398e+08 2.5974132e+08    8593.3518    481.95799   0.66593225         6550 
    6560    8740.8315 2.5972399e+08 2.5974132e+08    8593.5729    482.08405   0.66675367         6560 
    6570    8739.2163 2.5972399e+08 2.5974132e+08    8593.7877    482.21097   0.66757574         6570 
    6580    8737.5751 2.5972399e+08 2.5974132e+08    8593.9966    482.33885   0.66839848         6580 
    6590    8735.9247 2.5972399e+08 2.5974132e+08    8594.1998    482.46825   0.66922188         6590 
    6600    8734.2585 2.5972399e+08 2.5974132e+08    8594.3979    482.60161   0.67004595         6600 
    6610    8732.5612 2.5972399e+08 2.5974132e+08     8594.591    482.74185   0.67087058         6610 
    6620    8730.8333  2.59724e+08 2.5974132e+08    8594.7795    482.89027   0.67169574         6620 
    6630    8729.0736  2.59724e+08 2.5974132e+08    8594.9638    483.04815   0.67252143         6630 
    6640      8727.28  2.59724e+08 2.5974132e+08    8595.1443    483.22001   0.67334764         6640 
    6650    8725.4616  2.59724e+08 2.5974132e+08    8595.3212    483.40974   0.67417436         6650 
    6660    8723.6214  2.59724e+08 2.5974132e+08     8595.495     483.6163   0.67500161         6660 
    6670    8721.7554  2.59724e+08 2.5974132e+08    8595.6662    483.84203   0.67582939         6670 
    6680    8719.8538  2.59724e+08 2.5974132e+08    8595.8349    484.09145   0.67665757         6680 
    6690     8717.909 2.5972401e+08 2.5974132e+08    8596.0015    484.36359   0.67748605         6690 
    6700    8715.9213 2.5972401e+08 2.5974132e+08    8596.1665    484.65707   0.67831479         6700 
    6710    8713.8854 2.5972401e+08 2.5974132e+08    8596.3303    484.97442   0.67914377         6710 
    6720    8711.7953 2.5972401e+08 2.5974132e+08    8596.4933    485.31815   0.67997296         6720 
    6730     8709.666 2.5972401e+08 2.5974132e+08    8596.6559    485.68495   0.68080235         6730 
    6740    8707.5118 2.5972402e+08 2.5974132e+08    8596.8188      486.073   0.68163192         6740 
    6750    8705.3278 2.5972402e+08 2.5974132e+08    8596.9824     486.4846   0.68246168         6750 
    6760    8703.1076 2.5972402e+08 2.5974132e+08    8597.1472     486.9229   0.68329165         6760 
    6770    8700.8553 2.5972402e+08 2.5974132e+08    8597.3137    487.38176   0.68412186         6770 
    6780    8698.5707 2.5972402e+08 2.5974132e+08    8597.4827     487.8584   0.68495233         6780 
    6790    8696.2539 2.5972403e+08 2.5974132e+08    8597.6546    488.34959   0.68578309         6790 
    6800     8693.899 2.5972403e+08 2.5974132e+08    8597.8302    488.85589   0.68661417         6800 
    6810    8691.5005 2.5972403e+08 2.5974132e+08    8598.0101    489.37836   0.68744558         6810 
    6820    8689.0663 2.5972403e+08 2.5974132e+08    8598.1951    489.91667   0.68827735         6820 
    6830    8686.6007 2.5972404e+08 2.5974132e+08    8598.3859    490.46428   0.68910948         6830 
    6840    8684.0839 2.5972404e+08 2.5974132e+08    8598.5831    491.02492   0.68994197         6840 
    6850    8681.5022 2.5972404e+08 2.5974132e+08    8598.7876    491.59694   0.69077483         6850 
    6860    8678.8611 2.5972404e+08 2.5974132e+08         8599     492.1773   0.69160805         6860 
    6870    8676.1653 2.5972405e+08 2.5974132e+08    8599.2212    492.76343   0.69244165         6870 
    6880    8673.4109 2.5972405e+08 2.5974132e+08    8599.4518    493.36599   0.69327563         6880 
    6890    8670.6027 2.5972405e+08 2.5974132e+08    8599.6926    493.99002   0.69411001         6890 
    6900    8667.7532 2.5972405e+08 2.5974132e+08    8599.9446    494.63015   0.69494482         6900 
    6910    8664.8653 2.5972406e+08 2.5974132e+08    8600.2086    495.28719   0.69578007         6910 
    6920    8661.9247 2.5972406e+08 2.5974132e+08    8600.4854    495.96864    0.6966158         6920 
    6930    8658.9151 2.5972406e+08 2.5974132e+08    8600.7758    496.67643   0.69745204         6930 
    6940    8655.8439 2.5972406e+08 2.5974132e+08    8601.0808    497.40751    0.6982888         6940 
    6950    8652.7314 2.5972407e+08 2.5974132e+08    8601.4012    498.15694    0.6991261         6950 
    6960    8649.5857 2.5972407e+08 2.5974132e+08    8601.7381    498.92674   0.69996395         6960 
    6970    8646.4025 2.5972407e+08 2.5974132e+08    8602.0924    499.71916   0.70080237         6970 
    6980    8643.1779 2.5972408e+08 2.5974132e+08     8602.465    500.53333   0.70164135         6980 
    6990    8639.9148 2.5972408e+08 2.5974132e+08    8602.8569    501.36974   0.70248089         6990 
    7000    8636.4975 2.5972408e+08 2.5974132e+08     8603.269    508.80597   0.70332101         7000 
    7010    8631.1603 2.5972409e+08 2.5974132e+08    8603.7055    508.72176   0.70416229         7010 
    7020    8626.1042 2.5972409e+08 2.5974132e+08    8604.1699     509.0501   0.70500512         7020 
    7030     8621.182 2.5972409e+08 2.5974132e+08    8604.6629    509.57283   0.70584931         7030 
    7040    8616.3328 2.597241e+08 2.5974132e+08    8605.1851    510.22682   0.70669473         7040 
    7050    8611.5076 2.597241e+08 2.5974132e+08    8605.7368    510.97822   0.70754128         7050 
    7060    8606.6751 2.5972411e+08 2.5974132e+08    8606.3188    511.80275   0.70838888         7060 
    7070     8601.828 2.5972411e+08 2.5974132e+08    8606.9313    512.67548   0.70923746         7070 
    7080    8596.9727 2.5972412e+08 2.5974132e+08     8607.575    513.57659   0.71008694         7080 
    7090     8592.104 2.5972412e+08 2.5974132e+08    8608.2504    514.50238   0.71093723         7090 
    7100    8587.2025 2.5972412e+08 2.5974132e+08    8608.9578    515.45423   0.71178828         7100 
    7110    8582.2645 2.5972413e+08 2.5974132e+08    8609.6978    516.42825   0.71264002         7110 
    7120    8577.3047 2.5972413e+08 2.5974132e+08    8610.4707     517.4185   0.71349234         7120 
    7130     8572.335 2.5972414e+08 2.5974132e+08    8611.2771    518.41999   0.71434519         7130 
    7140    8567.3569 2.5972414e+08 2.5974132e+08    8612.1175    519.43341   0.71519859         7140 
    7150    8562.3601 2.5972415e+08 2.5974132e+08    8612.9923    520.45714   0.71605251         7150 
    7160    8557.3306 2.5972415e+08 2.5974132e+08     8613.902    521.49236   0.71690695         7160 
    7170     8552.269 2.5972415e+08 2.5974132e+08     8614.847     522.5361   0.71776186         7170 
    7180    8547.1827 2.5972416e+08 2.5974132e+08    8615.8277    523.58609   0.71861723         7180 
    7190    8542.0737 2.5972416e+08 2.5974132e+08    8616.8446    524.64121   0.71947309         7190 
    7200    8536.9426 2.5972417e+08 2.5974132e+08    8617.8983    525.70509   0.72032945         7200 
    7210     8531.795 2.5972417e+08 2.5974132e+08    8618.9892    526.77468   0.72118635         7210 
    7220    8526.6357 2.5972417e+08 2.5974132e+08    8620.1179      527.848   0.72204383         7220 
    7230    8521.4627 2.5972418e+08 2.5974132e+08    8621.2848    528.92581   0.72290193         7230 
    7240    8516.2656 2.5972418e+08 2.5974132e+08    8622.4903    530.01165   0.72376066         7240 
    7250    8511.0454 2.5972419e+08 2.5974132e+08    8623.7348    531.10312      0.72462         7250 
    7260    8505.8133 2.5972419e+08 2.5974132e+08    8625.0188    532.19466   0.72547991         7260 
    7270    8500.5656 2.5972419e+08 2.5974132e+08    8626.3426    533.28235   0.72634044         7270 
    7280     8495.289 2.597242e+08 2.5974132e+08    8627.7066    534.37358   0.72720161         7280 
    7290    8489.9796 2.597242e+08 2.5974132e+08    8629.1111    535.46577   0.72806343         7290 
    7300    8484.6397 2.5972421e+08 2.5974132e+08    8630.5562    536.55295   0.72892593         7300 
    7310    8479.2721 2.5972421e+08 2.5974132e+08    8632.0422    537.63194   0.72978906         7310 
    7320    8473.8821 2.5972421e+08 2.5974132e+08    8633.5691    538.70545   0.73065283         7320 
    7330    8468.4745 2.5972422e+08 2.5974132e+08    8635.1372    539.77443   0.73151726         7330 
    7340    8463.0479 2.5972422e+08 2.5974132e+08    8636.7466    540.83304   0.73238237         7340 
    7350    8457.5998 2.5972422e+08 2.5974132e+08    8638.3971    541.88187   0.73324815         7350 
    7360    8452.1326 2.5972423e+08 2.5974132e+08    8640.0889    542.91702   0.73411462         7360 
    7370    8446.6466 2.5972423e+08 2.5974132e+08    8641.8219     543.9386   0.73498179         7370 
    7380    8441.1404 2.5972424e+08 2.5974132e+08    8643.5961    544.94792   0.73584964         7380 
    7390    8435.6227 2.5972424e+08 2.5974132e+08    8645.4115    545.94068   0.73671818         7390 
    7400    8430.1082 2.5972424e+08 2.5974132e+08    8647.2681    546.90864   0.73758739         7400 
    7410    8424.5999 2.5972425e+08 2.5974132e+08    8649.1659    547.85268   0.73845726         7410 
    7420    8419.0902 2.5972425e+08 2.5974132e+08    8651.1048    548.77436   0.73932777         7420 
    7430    8413.5817 2.5972425e+08 2.5974132e+08    8653.0849    549.67289   0.74019893         7430 
    7440    8408.0864 2.5972426e+08 2.5974132e+08    8655.1059    550.54506   0.74107072         7440 
    7450    8402.6125 2.5972426e+08 2.5974132e+08    8657.1681     551.3841   0.74194314         7450 
    7460    8397.1586 2.5972426e+08 2.5974132e+08    8659.2712    552.19113   0.74281619         7460 
    7470    8391.7256 2.5972427e+08 2.5974132e+08    8661.4153    552.96384   0.74368986         7470 
    7480     8386.317 2.5972427e+08 2.5974132e+08    8663.6003    553.69741   0.74456416         7480 
    7490    8380.9347 2.5972427e+08 2.5974132e+08     8665.826    554.38922   0.74543906         7490 
    7500    8375.5794 2.5972428e+08 2.5974132e+08    8668.0924    555.04165   0.74631456         7500 
    7510    8370.2519 2.5972428e+08 2.5974132e+08    8670.3991    555.65173   0.74719065         7510 
    7520    8364.9507 2.5972428e+08 2.5974132e+08    8672.7462    556.21499   0.74806731         7520 
    7530    8359.6774 2.5972429e+08 2.5974132e+08    8675.1332     556.7284   0.74894454         7530 
    7540    8354.4384 2.5972429e+08 2.5974132e+08    8677.5601    557.19018   0.74982231         7540 
    7550    8349.2367 2.5972429e+08 2.5974132e+08    8680.0265    557.59795    0.7507006         7550 
    7560    8344.0721 2.5972429e+08 2.5974132e+08    8682.5324    557.95007   0.75157943         7560 
    7570    8338.9511 2.597243e+08 2.5974132e+08    8685.0775    558.24134   0.75245877         7570 
    7580    8333.8863 2.597243e+08 2.5974132e+08    8687.6618    558.46632   0.75333863         7580 
    7590    8328.8809 2.597243e+08 2.5974132e+08    8690.2851     558.6239   0.75421902         7590 
    7600    8323.9349 2.597243e+08 2.5974132e+08    8692.9471    558.71497   0.75509992         7600 
    7610    8319.0566 2.5972431e+08 2.5974132e+08    8695.6478    558.72936   0.75598136         7610 
    7620    8314.2525 2.5972431e+08 2.5974132e+08     8698.387    558.66263   0.75686332         7620 
    7630    8309.5192 2.5972431e+08 2.5974132e+08    8701.1647    558.51556   0.75774581         7630 
    7640    8304.8524 2.5972431e+08 2.5974132e+08    8703.9806    558.28814   0.75862883         7640 
    7650    8300.2521 2.5972431e+08 2.5974132e+08    8706.8347    557.98288   0.75951239         7650 
    7660    8295.7215 2.5972432e+08 2.5974132e+08    8709.7267    557.59789   0.76039648         7660 
    7670    8291.2621 2.5972432e+08 2.5974132e+08    8712.6567    557.13519   0.76128112         7670 
    7680    8286.8725 2.5972432e+08 2.5974132e+08    8715.6244    556.59793    0.7621663         7680 
    7690    8282.5518 2.5972432e+08 2.5974132e+08      8718.63     555.9844   0.76305203         7690 
    7700    8278.3044 2.5972432e+08 2.5974132e+08    8721.6732    555.29255   0.76393832         7700 
    7710    8274.1361 2.5972432e+08 2.5974132e+08    8724.7542    554.52258   0.76482517         7710 
    7720    8270.0473 2.5972432e+08 2.5974132e+08    8727.8729      553.675   0.76571258         7720 
    7730    8266.0371 2.5972432e+08 2.5974132e+08    8731.0294    552.75058   0.76660056         7730 
    7740    8262.1105 2.5972432e+08 2.5974132e+08    8734.2237    551.74659   0.76748912         7740 
    7750    8258.2697 2.5972432e+08 2.5974132e+08    8737.4558    550.66545   0.76837825         7750 
    7760    8254.5095 2.5972433e+08 2.5974132e+08    8740.7257    549.51276   0.76926796         7760 
    7770    8250.8267 2.5972433e+08 2.5974132e+08    8744.0335    548.29145   0.77015825         7770 
    7780    8247.2309 2.5972433e+08 2.5974132e+08    8747.3793    546.99509   0.77104913         7780 
    7790    8243.7259 2.5972433e+08 2.5974132e+08    8750.7632    545.62587   0.77194059         7790 
    7800    8240.3006 2.5972433e+08 2.5974132e+08    8754.1854    544.19098   0.77283263         7800 
    7810    8236.9404 2.5972433e+08 2.5974132e+08    8757.6457    542.69719   0.77372524         7810 
    7820    8233.6438 2.5972433e+08 2.5974132e+08    8761.1445    541.14384   0.77461844         7820 
    7830    8230.4002 2.5972433e+08 2.5974132e+08    8764.6819    539.53733    0.7755122         7830 
    7840    8227.0359 2.5972433e+08 2.5974132e+08     8768.258    537.91253   0.77640652         7840 
    7850    8223.0821 2.5972433e+08 2.5974132e+08    8771.8729    536.31206   0.77730141         7850 
    7860    8217.8705 2.5972433e+08 2.5974132e+08    8775.5267    534.77402   0.77819684         7860 
    7870    8210.8428 2.5972433e+08 2.5974132e+08    8779.2194    533.36237   0.77909283         7870 
    7880    8201.8778 2.5972434e+08 2.5974132e+08    8782.9509    532.10163   0.77998935         7880 
    7890    8192.3305 2.5972434e+08 2.5974132e+08    8786.7208    530.83384   0.78088641         7890 
    7900    8183.9686 2.5972435e+08 2.5974132e+08     8790.529    529.39044     0.781784         7900 
    7910    8176.4748 2.5972435e+08 2.5974132e+08    8794.3757    527.76643   0.78268213         7910 
    7920    8169.4654 2.5972435e+08 2.5974132e+08    8798.2611    525.91766   0.78358079         7920 
    7930    8163.4861 2.5972436e+08 2.5974132e+08    8802.1849    523.87827   0.78447998         7930 
    7940    8157.5907 2.5972436e+08 2.5974132e+08    8806.1251    521.70207   0.78537468         7940 
    7950    8151.1372 2.5972436e+08 2.5974132e+08    8809.9431     519.6002   0.78623393         7950 
    7960    8144.9126 2.5972436e+08 2.5974132e+08    8813.7741    517.46963    0.7870887         7960 
    7970    8139.7509 2.5972436e+08 2.5974132e+08    8817.2237    515.41104   0.78785219         7970 
    7980    8134.2635 2.5972437e+08 2.5974132e+08     8820.542    513.43651   0.78858132         7980 
    7990    8127.3841 2.5972437e+08 2.5974132e+08    8824.0812    511.50223   0.78935339         7990 
    8000    8118.8746 2.5972437e+08 2.5974132e+08    8827.9592    509.65347     0.790193         8000 
    8010    8109.9755 2.5972438e+08 2.5974132e+08    8831.8371    507.98602   0.79102611         8010 
    8020    8100.7008 2.5972438e+08 2.5974132e+08    8835.7223    506.38836   0.79185454         8020 
    8030    8090.8908 2.5972439e+08 2.5974132e+08    8839.6101    504.85881   0.79267746         8030 
    8040    8081.0182 2.597244e+08 2.5974132e+08    8843.5229    503.31431   0.79349983         8040 
    8050    8071.8338 2.597244e+08 2.5974132e+08    8847.2683    501.81415   0.79428179         8050 
    8060    8063.2304 2.5972441e+08 2.5974132e+08    8850.7756    500.38981   0.79500953         8060 
    8070    8055.3429 2.5972441e+08 2.5974132e+08    8854.0945     499.0273   0.79569432         8070 
    8080    8048.1092 2.5972442e+08 2.5974132e+08    8857.2661    497.71297   0.79634538         8080 
    8090      8041.13 2.5972442e+08 2.5974132e+08    8860.3665    496.36004    0.7969788         8090 
    8100    8034.2446 2.5972442e+08 2.5974132e+08    8863.4407    495.00859   0.79760404         8100 
    8110    8027.5272 2.5972443e+08 2.5974132e+08    8866.5094    493.65628   0.79822545         8110 
    8120    8020.6669 2.5972443e+08 2.5974132e+08    8869.5684    492.35899   0.79884234         8120 
    8130    8013.2655 2.5972443e+08 2.5974132e+08    8872.6482    491.07872   0.79946101         8130 
    8140    8005.4948 2.5972444e+08 2.5974132e+08    8875.7744    489.75269   0.80008661         8140 
    8150    7997.4117 2.5972444e+08 2.5974132e+08    8878.9222    488.43779   0.80071421         8150 
    8160    7989.3275 2.5972445e+08 2.5974132e+08    8881.9188    487.22637   0.80130962         8160 
    8170    7981.2275 2.5972445e+08 2.5974132e+08    8884.7886    486.12611   0.80187801         8170 
    8180    7973.1268 2.5972446e+08 2.5974132e+08    8887.5884    485.08956   0.80243087         8180 
    8190    7965.3425 2.5972446e+08 2.5974132e+08     8890.358    484.05464   0.80297625         8190 
    8200    7958.1582 2.5972447e+08 2.5974132e+08    8893.1177    483.00159   0.80351827         8200 
    8210    7951.4353 2.5972447e+08 2.5974132e+08    8895.8772    481.93879   0.80405888         8210 
    8220    7944.8325 2.5972448e+08 2.5974132e+08    8898.6488    480.87232   0.80460056         8220 
    8230    7938.0882 2.5972448e+08 2.5974132e+08    8901.4552    479.78159   0.80514776         8230 
    8240    7930.9257 2.5972449e+08 2.5974132e+08     8904.327    478.67491   0.80570647         8240 
    8250     7923.561 2.5972449e+08 2.5974132e+08      8907.27    477.51068   0.80627775         8250 
    8260    7916.5739 2.5972449e+08 2.5974132e+08    8910.1499    476.35008   0.80683562         8260 
    8270     7910.031 2.597245e+08 2.5974132e+08    8912.9228    475.21781   0.80737168         8270 
    8280    7903.6125 2.597245e+08 2.5974132e+08    8915.6388    474.13651    0.8078958         8280 
    8290    7896.9697 2.5972451e+08 2.5974132e+08    8918.3439    473.06637   0.80841696         8290 
    8300    7889.9441 2.5972451e+08 2.5974132e+08    8921.0672    472.00309    0.8089408         8300 
    8310    7882.5632 2.5972451e+08 2.5974132e+08    8923.8279      470.951   0.80947106         8310 
    8320    7874.9275 2.5972452e+08 2.5974132e+08     8926.641    469.89171   0.81001062         8320 
    8330    7867.4498 2.5972452e+08 2.5974132e+08    8929.5062    468.81504   0.81055945         8330 
    8340    7860.4339 2.5972453e+08 2.5974132e+08    8932.3811    467.75728   0.81110951         8340 
    8350    7853.6856 2.5972453e+08 2.5974132e+08    8935.2736    466.66697   0.81166239         8350 
    8360    7847.1762 2.5972454e+08 2.5974132e+08    8938.1898    465.51993    0.8122193         8360 
    8370    7840.9995 2.5972454e+08 2.5974132e+08     8941.073    464.32725   0.81276951         8370 
    8380    7835.1425 2.5972454e+08 2.5974132e+08    8943.8513    463.15899   0.81329942         8380 
    8390     7829.309 2.5972454e+08 2.5974132e+08    8946.5777    461.98969   0.81381923         8390 
    8400    7823.4134 2.5972455e+08 2.5974132e+08    8949.2982    460.79856   0.81433776         8400 
    8410     7817.478 2.5972455e+08 2.5974132e+08    8952.0433    459.58726   0.81486092         8410 
    8420    7811.5682 2.5972455e+08 2.5974132e+08    8954.8252    458.35083   0.81539109         8420 
    8430    7805.6742 2.5972456e+08 2.5974132e+08    8957.6398    457.09048   0.81592756         8430 
    8440    7799.9567 2.5972456e+08 2.5974132e+08    8960.4795    455.80708   0.81646893         8440 
    8450    7794.4916 2.5972456e+08 2.5974132e+08    8963.3263      454.513   0.81701187         8450 
    8460    7789.0309 2.5972457e+08 2.5974132e+08    8966.1748    453.21313   0.81755542         8460 
    8470    7783.5717 2.5972457e+08 2.5974132e+08    8969.0045    451.90286   0.81809574         8470 
    8480    7778.0632 2.5972457e+08 2.5974132e+08    8971.8136    450.60763   0.81863256         8480 
    8490    7772.4339 2.5972457e+08 2.5974132e+08    8974.6107    449.34106    0.8191676         8490 
    8500    7766.6902 2.5972458e+08 2.5974132e+08     8977.405    448.09545   0.81970268         8500 
    8510     7760.788 2.5972458e+08 2.5974132e+08    8980.2035    446.87181    0.8202392         8510 
    8520     7754.704 2.5972458e+08 2.5974132e+08    8983.0111    445.65317    0.8207782         8520 
    8530     7748.452 2.5972459e+08 2.5974132e+08    8985.8314     444.4373    0.8213204         8530 
    8540    7742.0969 2.5972459e+08 2.5974132e+08    8988.6672    443.21695   0.82186646         8540 
    8550    7735.5656 2.5972459e+08 2.5974132e+08    8991.5152    442.00996    0.8224158         8550 
    8560    7728.8599 2.597246e+08 2.5974132e+08    8994.3463    440.80159   0.82296289         8560 
    8570    7722.0686 2.597246e+08 2.5974132e+08    8997.1592    439.57209   0.82350751         8570 
    8580     7715.086 2.5972461e+08 2.5974132e+08    8999.9603    438.35137   0.82405098         8580 
    8590    7707.9508 2.5972461e+08 2.5974132e+08    9002.7564    437.11849   0.82459464         8590 
    8600    7700.9045 2.5972461e+08 2.5974132e+08     9005.549     435.8785   0.82513884         8600 
    8610    7693.8667 2.5972462e+08 2.5974132e+08     9008.329    434.65908   0.82568191         8610 
    8620    7686.8239 2.5972462e+08 2.5974132e+08    9011.0739    433.43811   0.82621946         8620 
    8630    7679.9687 2.5972463e+08 2.5974132e+08     9013.773    432.22587   0.82674939         8630 
    8640    7673.2056 2.5972463e+08 2.5974132e+08    9016.4393     431.0546   0.82727427         8640 
    8650    7666.5001 2.5972464e+08 2.5974132e+08    9019.0832    429.89174    0.8277962         8650 
    8660    7659.9135 2.5972464e+08 2.5974132e+08    9021.7129    428.70489   0.82831678         8660 
    8670    7653.3078 2.5972464e+08 2.5974132e+08    9024.3333     427.5229   0.82883708         8670 
    8680    7646.7613 2.5972465e+08 2.5974132e+08    9026.9475    426.32783   0.82935774         8680 
    8690    7640.4468 2.5972465e+08 2.5974132e+08    9029.5565    425.12174   0.82987905         8690 
    8700     7634.162 2.5972465e+08 2.5974132e+08      9032.16    423.94763     0.830401         8700 
    8710    7627.8314 2.5972466e+08 2.5974132e+08    9034.7574    422.74235   0.83092355         8710 
    8720    7621.5949 2.5972466e+08 2.5974132e+08    9037.3468    421.52482   0.83144635         8720 
    8730    7615.4017 2.5972467e+08 2.5974132e+08    9039.9244    420.34536   0.83196875         8730 
    8740    7609.2013 2.5972467e+08 2.5974132e+08    9042.4894    419.17739   0.83249059         8740 
    8750    7603.0483 2.5972467e+08 2.5974132e+08    9045.0427    418.01387   0.83301213         8750 
    8760    7596.8495 2.5972468e+08 2.5974132e+08    9047.5825    416.88736   0.83353307         8760 
    8770    7590.6014 2.5972468e+08 2.5974132e+08    9050.1091    415.78045    0.8340535         8770 
    8780    7584.3986 2.5972468e+08 2.5974132e+08    9052.6235    414.66791   0.83457367         8780 
    8790    7578.1972 2.5972469e+08 2.5974132e+08    9055.1187    413.55928   0.83509217         8790 
    8800      7572.22 2.5972469e+08 2.5974132e+08    9057.5521    412.42423    0.8356001         8800 
    8810    7566.5424 2.5972469e+08 2.5974132e+08    9059.9311    411.28305   0.83609893         8810 
    8820    7560.8751 2.597247e+08 2.5974132e+08    9062.2724    410.14955   0.83659208         8820 
    8830    7555.1285 2.597247e+08 2.5974132e+08    9064.5867    409.00679    0.8370818         8830 
    8840    7549.3914 2.597247e+08 2.5974132e+08     9066.874     407.8691   0.83756805         8840 
    8850    7543.6653 2.5972471e+08 2.5974132e+08    9069.1474    406.74303   0.83805367         8850 
    8860    7537.9249 2.5972471e+08 2.5974132e+08    9071.4148    405.62674   0.83854034         8860 
    8870    7532.1454 2.5972471e+08 2.5974132e+08    9073.6808    404.49368   0.83902911         8870 
    8880    7526.3666 2.5972472e+08 2.5974132e+08     9075.949    403.35132   0.83952087         8880 
    8890     7520.644 2.5972472e+08 2.5974132e+08    9078.2208    402.22322   0.84001598         8890 
    8900    7514.9433 2.5972473e+08 2.5974132e+08    9080.4978    401.09346   0.84051492         8900 
    8910     7509.226 2.5972473e+08 2.5974132e+08    9082.7792    399.94756    0.8410176         8910 
    8920    7503.4938 2.5972473e+08 2.5974132e+08    9085.0535     398.8104   0.84152161         8920 
    8930    7497.7841 2.5972474e+08 2.5974132e+08    9087.2845      397.727   0.84201892         8930 
    8940    7492.0417 2.5972474e+08 2.5974132e+08    9089.4642    396.68329   0.84250767         8940 
    8950    7486.1767 2.5972474e+08 2.5974132e+08    9091.6052    395.66405   0.84299059         8950 
    8960    7480.1963 2.5972475e+08 2.5974132e+08    9093.7184    394.66015   0.84347014         8960 
    8970    7474.1346 2.5972475e+08 2.5974132e+08    9095.8153    393.69326   0.84394887         8970 
    8980    7468.0676 2.5972475e+08 2.5974132e+08    9097.9065     392.7305   0.84442929         8980 
    8990    7461.9415 2.5972476e+08 2.5974132e+08    9099.9983    391.76431   0.84491293         8990 
    9000    7455.6717 2.5972476e+08 2.5974132e+08    9102.0939    390.19055   0.84540061         9000 
    9010    7449.5852 2.5972477e+08 2.5974132e+08    9104.1795    389.27021   0.84588925         9010 
    9020    7443.4465 2.5972477e+08 2.5974132e+08    9106.2202    388.35285   0.84637062         9020 
    9030    7437.2008 2.5972478e+08 2.5974132e+08    9108.2337    387.44651   0.84684883         9030 
    9040    7430.8809 2.5972478e+08 2.5974132e+08    9110.2371    386.55049   0.84732797         9040 
    9050    7424.4029 2.5972478e+08 2.5974132e+08    9112.2388    385.66343   0.84781013         9050 
    9060    7417.7666 2.5972479e+08 2.5974132e+08    9114.2289    384.76849   0.84829299         9060 
    9070    7411.0342 2.5972479e+08 2.5974132e+08    9116.2153    383.87463    0.8487785         9070 
    9080     7404.103 2.597248e+08 2.5974132e+08    9118.2044    383.00593   0.84926839         9080 
    9090    7397.0765 2.597248e+08 2.5974132e+08     9120.175    382.15141   0.84975751         9090 
    9100    7390.1246 2.5972481e+08 2.5974132e+08    9122.1145    381.31011   0.85024267         9100 
    9110    7383.1675 2.5972481e+08 2.5974132e+08    9124.0274    380.48497   0.85072498         9110 
    9120    7376.2062 2.5972482e+08 2.5974132e+08    9125.9184    379.65017   0.85120561         9120 
    9130    7369.3348 2.5972482e+08 2.5974132e+08     9127.792     378.8062   0.85168572         9130 
    9140     7362.491 2.5972483e+08 2.5974132e+08    9129.6519    377.97098   0.85216627         9140 
    9150    7355.5209 2.5972483e+08 2.5974132e+08    9131.5008    377.14398   0.85264808         9150 
    9160    7348.4561 2.5972484e+08 2.5974132e+08    9133.3407    376.31847    0.8531317         9160 
    9170     7341.467 2.5972484e+08 2.5974132e+08    9135.1725     375.4837   0.85361744         9170 
    9180    7334.4891 2.5972485e+08 2.5974132e+08    9136.9948    374.66886   0.85410503         9180 
    9190    7327.4217 2.5972485e+08 2.5974132e+08       9138.8    373.86169   0.85459249         9190 
    9200    7320.4136 2.5972486e+08 2.5974132e+08    9140.5873    373.06228   0.85507961         9200 
    9210    7313.5401 2.5972486e+08 2.5974132e+08    9142.3556      372.292   0.85556616         9210 
    9220     7306.643 2.5972487e+08 2.5974132e+08    9144.1018    371.57915   0.85605125         9220 
    9230    7299.8611 2.5972488e+08 2.5974132e+08    9145.8077    370.88352   0.85652974         9230 
    9240    7293.3103 2.5972488e+08 2.5974132e+08    9147.4766    370.19189   0.85700246         9240 
    9250    7286.9804 2.5972488e+08 2.5974132e+08    9149.1189    369.51154   0.85747224         9250 
    9260    7280.8451 2.5972489e+08 2.5974132e+08    9150.7431     368.8362   0.85794153         9260 
    9270    7274.7401 2.5972489e+08 2.5974132e+08    9152.3552    368.16414   0.85841209         9270 
    9280    7268.5552 2.597249e+08 2.5974132e+08    9153.9585    367.49056   0.85888501         9280 
    9290     7262.425 2.597249e+08 2.5974132e+08    9155.5451    366.82011   0.85935797         9290 
    9300    7256.4554 2.5972491e+08 2.5974132e+08    9157.0969    366.16938   0.85982559         9300 
    9310    7250.5449 2.5972491e+08 2.5974132e+08    9158.6256    365.52952   0.86029127         9310 
    9320    7244.7734 2.5972492e+08 2.5974132e+08    9160.1378    364.89283   0.86075707         9320 
    9330    7239.2479 2.5972492e+08 2.5974132e+08    9161.6359    364.26945   0.86122373         9330 
    9340     7233.941 2.5972492e+08 2.5974132e+08    9163.1202    363.62668   0.86169146         9340 
    9350    7228.7725 2.5972493e+08 2.5974132e+08    9164.5876    362.97201   0.86215934         9350 
    9360    7223.6814 2.5972493e+08 2.5974132e+08    9166.0364    362.31052   0.86262682         9360 
    9370    7218.6434 2.5972493e+08 2.5974132e+08    9167.4644    361.63178   0.86309318         9370 
    9380    7213.7003 2.5972494e+08 2.5974132e+08    9168.8733    360.91896   0.86355899         9380 
    9390    7208.8419 2.5972494e+08 2.5974132e+08    9170.2634    360.20365    0.8640244         9390 
    9400      7204.01 2.5972495e+08 2.5974132e+08    9171.6365    359.48608   0.86448998         9400 
    9410    7199.2054 2.5972495e+08 2.5974132e+08    9172.9948    358.74005   0.86495658         9410 
    9420    7194.4393 2.5972495e+08 2.5974132e+08    9174.3389    357.99094   0.86542447         9420 
    9430    7189.7846 2.5972496e+08 2.5974132e+08    9175.6673     357.2306   0.86589319         9430 
    9440    7185.1908 2.5972496e+08 2.5974132e+08    9176.9761    356.46318   0.86636138         9440 
    9450    7180.6153 2.5972496e+08 2.5974132e+08     9178.265    355.68964   0.86682895         9450 
    9460    7176.2034 2.5972496e+08 2.5974132e+08     9179.534    354.91064   0.86729591         9460 
    9470    7171.9001 2.5972497e+08 2.5974132e+08    9180.7833    354.11688   0.86776233         9470 
    9480    7167.6189 2.5972497e+08 2.5974132e+08    9182.0133    353.33115   0.86822841         9480 
    9490    7163.4683 2.5972497e+08 2.5974132e+08    9183.2246    352.54771   0.86869438         9490 
    9500    7159.4093 2.5972498e+08 2.5974132e+08    9184.4177     351.7533   0.86916049         9500 
    9510     7155.385 2.5972498e+08 2.5974132e+08    9185.5934     350.9557   0.86962703         9510 
    9520    7151.4136 2.5972498e+08 2.5974132e+08     9186.752    350.17017   0.87009425         9520 
    9530    7147.4723 2.5972499e+08 2.5974132e+08    9187.8939    349.39491   0.87056236         9530 
    9540    7143.5668 2.5972499e+08 2.5974132e+08    9189.0195    348.60996   0.87103157         9540 
    9550    7139.6708 2.5972499e+08 2.5974132e+08    9190.1288    347.81851     0.871502         9550 
    9560    7135.7837 2.5972499e+08 2.5974132e+08    9191.2205    347.01354   0.87197319         9560 
    9570    7131.9409  2.59725e+08 2.5974132e+08    9192.2909    346.20895   0.87244355         9570 
    9580    7128.1198  2.59725e+08 2.5974132e+08    9193.3404    345.39903   0.87291329         9580 
    9590    7124.2811  2.59725e+08 2.5974132e+08      9194.37    344.58822   0.87338283         9590 
    9600    7120.4769  2.59725e+08 2.5974132e+08    9195.3804    343.78532   0.87385255         9600 
    9610    7116.6917 2.5972501e+08 2.5974132e+08    9196.3723    342.97838   0.87432277         9610 
    9620    7112.9167 2.5972501e+08 2.5974132e+08    9197.3459    342.18326   0.87479367         9620 
    9630    7109.2083 2.5972501e+08 2.5974132e+08    9198.3012    341.39048   0.87526534         9630 
    9640    7105.4979 2.5972502e+08 2.5974132e+08    9199.2371    340.61255    0.8757373         9640 
    9650    7101.7556 2.5972502e+08 2.5974132e+08    9200.1533    339.85407    0.8762094         9650 
    9660    7098.0814 2.5972502e+08 2.5974132e+08    9201.0497    339.08787    0.8766817         9660 
    9670    7094.4112 2.5972502e+08 2.5974132e+08    9201.9259    338.33732   0.87715401         9670 
    9680    7090.7274 2.5972503e+08 2.5974132e+08    9202.7807    337.61507   0.87762572         9680 
    9690    7087.1162 2.5972503e+08 2.5974132e+08    9203.6146    336.90088   0.87809704         9690 
    9700    7083.5323 2.5972503e+08 2.5974132e+08    9204.4278    336.18694   0.87856822         9700 
    9710    7079.8979 2.5972504e+08 2.5974132e+08    9205.2207    335.50418   0.87903946         9710 
    9720    7076.3244 2.5972504e+08 2.5974132e+08    9205.9937    334.82525   0.87951098         9720 
    9730    7072.8325 2.5972504e+08 2.5974132e+08     9206.747    334.15701   0.87998296         9730 
    9740    7069.3216 2.5972504e+08 2.5974132e+08    9207.4805    333.52231   0.88045556         9740 
    9750    7065.7861 2.5972505e+08 2.5974132e+08    9208.1943    332.91096   0.88092887         9750 
    9760    7062.2523 2.5972505e+08 2.5974132e+08    9208.8878    332.30908   0.88140245         9760 
    9770    7058.6755 2.5972505e+08 2.5974132e+08    9209.5603    331.73801   0.88187601         9770 
    9780    7055.0875 2.5972506e+08 2.5974132e+08    9210.2119    331.19167   0.88234962         9780 
    9790    7051.5204 2.5972506e+08 2.5974132e+08    9210.8427    330.64527   0.88282335         9790 
    9800    7047.9482 2.5972506e+08 2.5974132e+08    9211.4527    330.12467   0.88329726         9800 
    9810    7044.3759 2.5972506e+08 2.5974132e+08     9212.042    329.61586   0.88377141         9810 
    9820     7040.805 2.5972507e+08 2.5974132e+08    9212.6104    329.12242   0.88424588         9820 
    9830    7037.2145 2.5972507e+08 2.5974132e+08    9213.1581    328.65257    0.8847207         9830 
    9840    7033.6471 2.5972507e+08 2.5974132e+08    9213.6847    328.20516   0.88519565         9840 
    9850    7030.1314 2.5972508e+08 2.5974132e+08    9214.1898    327.75672   0.88567049         9850 
    9860    7026.6235 2.5972508e+08 2.5974132e+08    9214.6736    327.33025   0.88614526         9860 
    9870    7023.1115 2.5972508e+08 2.5974132e+08    9215.1361    326.92075   0.88661999         9870 
    9880    7019.5927 2.5972509e+08 2.5974132e+08    9215.5772     326.5247   0.88709471         9880 
    9890    7016.0665 2.5972509e+08 2.5974132e+08     9215.997    326.15118   0.88756942         9890 
    9900    7012.5678 2.5972509e+08 2.5974132e+08    9216.3954    325.78729   0.88804391         9900 
    9910    7009.1097 2.5972509e+08 2.5974132e+08    9216.7723    325.42732   0.88851813         9910 
    9920    7005.6734 2.597251e+08 2.5974132e+08    9217.1276    325.09695   0.88899208         9920 
    9930    7002.2774 2.597251e+08 2.5974132e+08    9217.4615    324.79015   0.88946579         9930 
    9940    6998.9447 2.597251e+08 2.5974132e+08    9217.7739    324.48337   0.88993929         9940 
    9950    6995.6104 2.5972511e+08 2.5974132e+08    9218.0649    324.19427    0.8904126         9950 
    9960    6992.2678 2.5972511e+08 2.5974132e+08    9218.3345    323.93514   0.89088577         9960 
    9970    6988.9729 2.5972511e+08 2.5974132e+08    9218.5826    323.69313   0.89135873         9970 
    9980    6985.7423 2.5972512e+08 2.5974132e+08    9218.8093    323.45191   0.89183148         9980 
    9990    6982.5658 2.5972512e+08 2.5974132e+08    9219.0146    323.21589   0.89230406         9990 
   10000    6979.4824 2.5972512e+08 2.5974132e+08    9219.1985    323.04824   0.89277651        10000 
   10010    6976.4303 2.5972512e+08 2.5974132e+08    9219.3609    322.84252   0.89324888        10010 
   10020    6973.3596 2.5972513e+08 2.5974132e+08    9219.5019    322.65166   0.89372119        10020 
   10030    6970.3145 2.5972513e+08 2.5974132e+08    9219.6215    322.46587   0.89419347        10030 
   10040     6967.365 2.5972513e+08 2.5974132e+08    9219.7196    322.29306   0.89466576        10040 
   10050    6964.4746 2.5972514e+08 2.5974132e+08    9219.7964    322.13115    0.8951381        10050 
   10060    6961.5913 2.5972514e+08 2.5974132e+08    9219.8516    321.97723    0.8956105        10060 
   10070     6958.751 2.5972514e+08 2.5974132e+08    9219.8854    321.83123   0.89608299        10070 
   10080    6956.0012 2.5972514e+08 2.5974132e+08    9219.8977    321.69314   0.89655559        10080 
   10090    6953.2943 2.5972515e+08 2.5974132e+08    9219.8885     321.5669   0.89702831        10090 
   10100    6950.6324 2.5972515e+08 2.5974132e+08    9219.8578    321.43999   0.89750114        10100 
   10110    6948.0273 2.5972515e+08 2.5974132e+08    9219.8056    321.32793   0.89797407        10110 
   10120    6945.4735 2.5972516e+08 2.5974132e+08    9219.7319    321.23431   0.89844708        10120 
   10130    6942.9562 2.5972516e+08 2.5974132e+08    9219.6366    321.15881   0.89892012        10130 
   10140    6940.4542 2.5972516e+08 2.5974132e+08    9219.5198    321.08954   0.89939292        10140 
   10150    6937.9255 2.5972516e+08 2.5974132e+08    9219.3818    321.04089   0.89986545        10150 
   10160     6935.386 2.5972517e+08 2.5974132e+08    9219.2224    321.01346   0.90033772        10160 
   10170    6932.8683 2.5972517e+08 2.5974132e+08    9219.0418    320.99318   0.90080974        10170 
   10180    6930.3515 2.5972517e+08 2.5974132e+08    9218.8401    320.98673   0.90128154        10180 
   10190    6927.8385 2.5972517e+08 2.5974132e+08    9218.6173    320.99696   0.90175314        10190 
   10200    6925.4006 2.5972518e+08 2.5974132e+08    9218.3735    321.02242   0.90222457        10200 
   10210    6923.0355 2.5972518e+08 2.5974132e+08    9218.1088    321.06592   0.90269581        10210 
   10220    6920.6822 2.5972518e+08 2.5974132e+08    9217.8231    321.13391   0.90316688        10220 
   10230    6918.3498 2.5972518e+08 2.5974132e+08    9217.5168     321.2233    0.9036377        10230 
   10240    6916.1062 2.5972519e+08 2.5974132e+08    9217.1898    321.32286   0.90410827        10240 
   10250    6913.9195 2.5972519e+08 2.5974132e+08    9216.8422    321.44884   0.90457859        10250 
   10260     6911.726 2.5972519e+08 2.5974132e+08    9216.4741    321.60388   0.90504869        10260 
   10270    6909.5363 2.597252e+08 2.5974132e+08    9216.0855    321.77156    0.9055186        10270 
   10280    6907.4045 2.597252e+08 2.5974132e+08    9215.6766    321.94795   0.90598837        10280 
   10290    6905.3177 2.597252e+08 2.5974132e+08    9215.2473    322.14649   0.90645802        10290 
   10300    6903.2168 2.597252e+08 2.5974132e+08    9214.7977    322.37026   0.90692759        10300 
   10310    6901.1105 2.5972521e+08 2.5974132e+08    9214.3279     322.6061    0.9073971        10310 
   10320    6899.0433 2.5972521e+08 2.5974132e+08    9213.8379    322.84995   0.90786657        10320 
   10330    6896.9879 2.5972521e+08 2.5974132e+08    9213.3278    323.11837   0.90833601        10330 
   10340    6894.9059 2.5972521e+08 2.5974132e+08    9212.7977    323.40343   0.90880542        10340 
   10350    6892.8053 2.5972522e+08 2.5974132e+08    9212.2477    323.69674   0.90927481        10350 
   10360    6890.7074 2.5972522e+08 2.5974132e+08    9211.6778    324.00587   0.90974418        10360 
   10370    6888.6099 2.5972522e+08 2.5974132e+08    9211.0882    324.33075   0.91021351        10370 
   10380    6886.4916 2.5972522e+08 2.5974132e+08     9210.479    324.67227   0.91068275        10380 
   10390    6884.3529 2.5972523e+08 2.5974132e+08    9209.8506    325.01822   0.91115179        10390 
   10400    6882.1981 2.5972523e+08 2.5974132e+08    9209.2029     325.3872   0.91162065        10400 
   10410    6880.0329 2.5972523e+08 2.5974132e+08    9208.5362     325.7742   0.91208935        10410 
   10420    6877.8311 2.5972524e+08 2.5974132e+08    9207.8505    326.19125   0.91255789        10420 
   10430    6875.4185 2.5972524e+08 2.5974132e+08     9207.146    326.64505   0.91302628        10430 
   10440    6872.4238 2.5972524e+08 2.5974132e+08    9206.4231    327.15716   0.91349454        10440 
   10450    6868.3718 2.5972525e+08 2.5974132e+08    9205.6823    327.72732   0.91396268        10450 
   10460    6862.6458 2.5972525e+08 2.5974132e+08    9204.9244    328.38662    0.9144307        10460 
   10470    6854.6781 2.5972526e+08 2.5974132e+08    9204.1506     329.1331   0.91489861        10470 
   10480    6844.2937 2.5972527e+08 2.5974132e+08    9203.3627    330.00655   0.91536644        10480 
   10490    6832.3126 2.5972529e+08 2.5974132e+08    9202.5628    330.97173   0.91583418        10490 
   10500    6820.1471 2.597253e+08 2.5974132e+08    9201.7529    331.94684   0.91630185        10500 
   10510    6809.3364 2.5972531e+08 2.5974132e+08    9200.9348    332.77282    0.9167695        10510 
   10520    6799.6469 2.5972532e+08 2.5974132e+08    9200.1095    333.46943   0.91723725        10520 
   10530    6789.9791 2.5972533e+08 2.5974132e+08    9199.2771    334.07436   0.91770546        10530 
   10540      6778.59 2.5972534e+08 2.5974132e+08    9198.4384    334.72048   0.91817394        10540 
   10550    6764.2685 2.5972536e+08 2.5974132e+08    9197.5955    335.62401   0.91864202        10550 
   10560    6747.5557 2.5972538e+08 2.5974132e+08    9196.7498    336.79855   0.91910977        10560 
   10570    6731.1448 2.5972539e+08 2.5974132e+08    9195.9032    338.08173    0.9195773        10570 
   10580    6718.9177 2.5972541e+08 2.5974132e+08    9195.0569    338.99044   0.92004486        10580 
   10590    6712.1729 2.5972541e+08 2.5974132e+08    9194.2127    339.32161   0.92051174        10590 
   10600    6708.8053 2.5972542e+08 2.5974132e+08    9193.3782    339.18089   0.92097326        10600 
   10610    6706.1731 2.5972542e+08 2.5974132e+08    9192.5517    338.87887   0.92142935        10610 
   10620    6703.4349 2.5972543e+08 2.5974132e+08    9191.7297    338.51522   0.92188092        10620 
   10630    6700.3431 2.5972543e+08 2.5974132e+08    9190.9087    338.16269   0.92232911        10630 
   10640    6696.7832 2.5972543e+08 2.5974132e+08    9190.0862    337.90569   0.92277459        10640 
   10650    6693.3083 2.5972544e+08 2.5974132e+08    9189.2569    337.79052   0.92321974        10650 
   10660    6690.5429 2.5972544e+08 2.5974132e+08    9188.4185    337.64611   0.92366531        10660 
   10670    6686.7119 2.5972545e+08 2.5974132e+08    9187.5681    337.49231   0.92411238        10670 
   10680    6680.2954 2.5972545e+08 2.5974132e+08     9186.703    337.58466   0.92456196        10680 
   10690    6671.9088 2.5972546e+08 2.5974132e+08    9185.8214    338.03712   0.92501486        10690 
   10700    6662.8986 2.5972547e+08 2.5974132e+08    9184.9225    338.76527   0.92547169        10700 
   10710    6654.9718 2.5972548e+08 2.5974132e+08    9184.0062    339.52082   0.92593285        10710 
   10720    6649.6242 2.5972549e+08 2.5974132e+08    9183.0748    340.09375   0.92639742        10720 
   10730     6646.423 2.5972549e+08 2.5974132e+08    9182.1367    340.40665   0.92686128        10730 
   10740    6643.4122 2.597255e+08 2.5974132e+08    9181.1916    340.62035   0.92732425        10740 
   10750    6639.2044 2.597255e+08 2.5974132e+08    9180.2378    340.92225   0.92778669        10750 
   10760    6633.3764 2.5972551e+08 2.5974132e+08    9179.2737    341.38836   0.92824913        10760 
   10770     6626.312 2.5972552e+08 2.5974132e+08    9178.2983    342.03748     0.928712        10770 
   10780    6618.7477 2.5972552e+08 2.5974132e+08    9177.3112    342.81706   0.92917563        10780 
   10790    6611.2027 2.5972553e+08 2.5974132e+08    9176.3123    343.68325   0.92964028        10790 
   10800    6604.1887 2.5972554e+08 2.5974132e+08    9175.3017    344.56221   0.93010623        10800 
   10810    6598.2753 2.5972555e+08 2.5974132e+08    9174.2793    345.36006    0.9305737        10810 
   10820    6593.7333 2.5972555e+08 2.5974132e+08    9173.2445    345.99628   0.93104295        10820 
   10830    6590.1823 2.5972556e+08 2.5974132e+08    9172.1966    346.44678   0.93151421        10830 
   10840    6586.7793 2.5972556e+08 2.5974132e+08    9171.1343    346.84921   0.93198772        10840 
   10850    6582.7858 2.5972557e+08 2.5974132e+08    9170.0562    347.30175   0.93246369        10850 
   10860    6577.7845 2.5972557e+08 2.5974132e+08    9168.9612    347.86549   0.93294235        10860 
   10870    6571.6555 2.5972558e+08 2.5974132e+08    9167.8489    348.56596   0.93342389        10870 
   10880      6564.52 2.5972559e+08 2.5974132e+08    9166.7191    349.37695   0.93390849        10880 
   10890    6556.7786 2.597256e+08 2.5974132e+08    9165.5722    350.23824   0.93439629        10890 
   10900    6548.7244 2.5972561e+08 2.5974132e+08    9164.4089     351.1317   0.93488744        10900 
   10910     6540.865 2.5972562e+08 2.5974132e+08    9163.2301    351.99186   0.93538203        10910 
   10920    6533.7955 2.5972562e+08 2.5974132e+08    9162.0363    352.78684   0.93588014        10920 
   10930    6527.7008 2.5972563e+08 2.5974132e+08    9160.8274    353.50335   0.93638184        10930 
   10940    6522.2865 2.5972564e+08 2.5974132e+08    9159.6066    354.20579   0.93688565        10940 
   10950    6517.1347 2.5972565e+08 2.5974132e+08    9158.3774    354.94537   0.93739006        10950 
   10960     6512.205 2.5972565e+08 2.5974132e+08    9157.1388    355.66101   0.93789523        10960 
   10970     6507.906 2.5972566e+08 2.5974132e+08    9155.8905    356.32313   0.93840129        10970 
   10980    6504.3687 2.5972566e+08 2.5974132e+08     9154.635    356.88448   0.93890712        10980 
   10990    6500.8594 2.5972567e+08 2.5974132e+08    9153.3797    357.40403   0.93940956        10990 
   11000    6496.3506 2.5972567e+08 2.5974132e+08    9152.1214    358.59523   0.93990981        11000 
   11010    6490.3911 2.5972568e+08 2.5974132e+08    9150.8565    359.25032   0.94040927        11010 
   11020    6484.5628 2.5972569e+08 2.5974132e+08    9149.5828    359.92575   0.94090893        11020 
   11030    6479.4684 2.5972569e+08 2.5974132e+08    9148.2989    360.62724   0.94140949        11030 
   11040    6474.6768 2.597257e+08 2.5974132e+08    9147.0031    361.41988   0.94191158        11040 
   11050    6468.8415 2.5972571e+08 2.5974132e+08    9145.6941    362.25646   0.94241584        11050 
   11060    6461.3013 2.5972572e+08 2.5974132e+08    9144.3701     363.1194   0.94292291        11060 
   11070    6453.2944 2.5972572e+08 2.5974132e+08    9143.0297    363.99938   0.94343331        11070 
   11080    6446.1441 2.5972573e+08 2.5974132e+08    9141.6811    364.96118   0.94394415        11080 
   11090     6439.667 2.5972574e+08 2.5974132e+08     9140.328     365.9698   0.94445426        11090 
   11100    6433.1999 2.5972575e+08 2.5974132e+08    9138.9703    366.97275   0.94496403        11100 
   11110    6426.4747 2.5972576e+08 2.5974132e+08     9137.608    367.97994   0.94547376        11110 
   11120    6419.8366 2.5972576e+08 2.5974132e+08    9136.2408    369.00344   0.94598382        11120 
   11130    6413.6597 2.5972577e+08 2.5974132e+08    9134.8678    369.99852    0.9464948        11130 
   11140    6407.9433 2.5972578e+08 2.5974132e+08    9133.4875    370.98368    0.9470074        11140 
   11150    6402.4127 2.5972579e+08 2.5974132e+08    9132.0996    371.89619   0.94752191        11150 
   11160    6396.8032 2.5972579e+08 2.5974132e+08    9130.7097    372.75768   0.94803642        11160 
   11170     6391.036 2.597258e+08 2.5974132e+08    9129.3166    373.52917   0.94855145        11170 
   11180    6385.0212 2.5972581e+08 2.5974132e+08    9127.9163     374.2323   0.94906863        11180 
   11190    6378.6051 2.5972582e+08 2.5974132e+08    9126.5066    374.88392   0.94958894        11190 
   11200    6371.6121 2.5972582e+08 2.5974132e+08    9125.0972    375.54993   0.95010896        11200 
   11210    6363.6081 2.5972583e+08 2.5974132e+08    9123.6896    376.29177    0.9506284        11210 
   11220    6354.9334 2.5972584e+08 2.5974132e+08    9122.2848    377.03194   0.95114722        11220 
   11230    6346.4964 2.5972585e+08 2.5974132e+08    9120.8834    377.72321   0.95166545        11230 
   11240    6338.7353 2.5972586e+08 2.5974132e+08    9119.4853     378.3807   0.95218318        11240 
   11250    6331.4263 2.5972587e+08 2.5974132e+08    9118.0899    378.99833   0.95270059        11250 
   11260    6324.4157 2.5972588e+08 2.5974132e+08    9116.6962    379.59625   0.95321789        11260 
   11270    6317.3777 2.5972589e+08 2.5974132e+08    9115.3028    380.31654   0.95373539        11270 
   11280    6309.9495 2.597259e+08 2.5974132e+08    9113.9084    381.14601   0.95425342        11280 
   11290    6302.1337 2.5972591e+08 2.5974132e+08    9112.5122     382.0725   0.95477233        11290 
   11300    6294.5615 2.5972592e+08 2.5974132e+08    9111.1135    383.02344   0.95529248        11300 
   11310    6287.6607 2.5972592e+08 2.5974132e+08    9109.7155    383.97517   0.95581294        11310 
   11320    6281.3854 2.5972593e+08 2.5974132e+08    9108.3227    384.83977   0.95633215        11320 
   11330    6275.3551 2.5972594e+08 2.5974132e+08    9106.9346    385.63459   0.95685032        11330 
   11340    6269.3533 2.5972595e+08 2.5974132e+08    9105.5499    386.38911   0.95736783        11340 
   11350    6263.2632 2.5972595e+08 2.5974132e+08    9104.1679    387.16439   0.95788493        11350 
   11360    6256.8641 2.5972596e+08 2.5974132e+08    9102.7886    387.98981   0.95840158        11360 
   11370    6250.1737 2.5972597e+08 2.5974132e+08    9101.4129    388.84097   0.95891742        11370 
   11380    6243.3698 2.5972598e+08 2.5974132e+08    9100.0415    389.66779   0.95943239        11380 
   11390    6236.5649 2.5972599e+08 2.5974132e+08    9098.6752    390.47784   0.95994645        11390 
   11400    6229.8707 2.5972599e+08 2.5974132e+08    9097.3148    391.23952    0.9604595        11400 
   11410    6223.3905  2.59726e+08 2.5974132e+08    9095.9601    391.95878   0.96097191        11410 
   11420    6217.0812 2.5972601e+08 2.5974132e+08    9094.6059    392.60091   0.96148581        11420 
   11430    6210.6623 2.5972602e+08 2.5974132e+08    9093.2494    393.18101   0.96200244        11430 
   11440    6204.0239 2.5972602e+08 2.5974132e+08     9091.899     393.7078   0.96251862        11440 
   11450    6197.5121 2.5972603e+08 2.5974132e+08    9090.5542    394.21113   0.96303446        11450 
   11460    6191.6808 2.5972604e+08 2.5974132e+08    9089.2143     394.7393   0.96355014        11460 
   11470    6186.6147 2.5972605e+08 2.5974132e+08    9087.8785    395.29257   0.96406581        11470 
   11480    6181.7578 2.5972605e+08 2.5974132e+08    9086.5533    395.88248   0.96457884        11480 
   11490    6176.7332 2.5972606e+08 2.5974132e+08    9085.2682     396.4373   0.96507769        11490 
   11500    6171.4148 2.5972607e+08 2.5974132e+08    9083.9987    396.98837    0.9655718        11500 
   11510    6165.9428 2.5972607e+08 2.5974132e+08    9082.7186    397.55587   0.96607134        11510 
   11520    6160.6187 2.5972608e+08 2.5974132e+08    9081.4087    398.11844   0.96658395        11520 
   11530    6155.6975 2.5972608e+08 2.5974132e+08      9080.09    398.69208   0.96710151        11530 
   11540    6151.0136 2.5972609e+08 2.5974132e+08    9078.7742    399.28713   0.96761956        11540 
   11550    6146.2701 2.597261e+08 2.5974132e+08    9077.4615    399.86001   0.96813813        11550 
   11560    6141.3015 2.597261e+08 2.5974132e+08    9076.1519    400.40358   0.96865726        11560 
   11570    6136.0378 2.5972611e+08 2.5974132e+08    9074.8457    400.93398     0.969177        11570 
   11580    6130.4125 2.5972612e+08 2.5974132e+08    9073.5427    401.46853   0.96969746        11580 
   11590     6124.393 2.5972612e+08 2.5974132e+08     9072.243    401.99827   0.97021879        11590 
   11600    6118.1083 2.5972613e+08 2.5974132e+08     9070.946    402.54726   0.97074139        11600 
   11610     6111.598 2.5972614e+08 2.5974132e+08    9069.6495    403.13503   0.97126627        11610 
   11620    6104.7967 2.5972615e+08 2.5974132e+08    9068.3488    403.76662    0.9717957        11620 
   11630     6097.594 2.5972616e+08 2.5974132e+08    9067.0342    404.42258   0.97233397        11630 
   11640    6089.8748 2.5972617e+08 2.5974132e+08    9065.6915     405.1222   0.97288752        11640 
   11650    6081.7701 2.5972617e+08 2.5974132e+08    9064.3407    405.83111   0.97344872        11650 
   11660    6073.7992 2.5972618e+08 2.5974132e+08    9063.0169    406.49107   0.97400348        11660 
   11670    6066.5627 2.5972619e+08 2.5974132e+08     9061.715    407.05393   0.97455432        11670 
   11680    6060.4744 2.597262e+08 2.5974132e+08    9060.4291    407.49963   0.97510391        11680 
   11690    6055.3137 2.5972621e+08 2.5974132e+08    9059.1541    407.84502   0.97565443        11690 
   11700    6050.6344 2.5972621e+08 2.5974132e+08    9057.8856    408.11562   0.97620759        11700 
   11710    6046.0603 2.5972622e+08 2.5974132e+08    9056.6204    408.38131   0.97676451        11710 
   11720    6041.4431 2.5972622e+08 2.5974132e+08    9055.3566    408.70948   0.97732579        11720 
   11730    6036.7296 2.5972623e+08 2.5974132e+08    9054.0932    409.12464   0.97789159        11730 
   11740    6031.8739 2.5972624e+08 2.5974132e+08    9052.8343    409.59588   0.97845983        11740 
   11750    6026.8975 2.5972624e+08 2.5974132e+08     9051.583    410.10936   0.97902896        11750 
   11760    6021.7824 2.5972625e+08 2.5974132e+08    9050.3381    410.63316   0.97959945        11760 
   11770    6016.4299 2.5972626e+08 2.5974132e+08    9049.1013    411.16397   0.98017054        11770 
   11780    6010.8068 2.5972626e+08 2.5974132e+08    9047.8751    411.67924   0.98074127        11780 
   11790    6004.8235 2.5972627e+08 2.5974132e+08    9046.6583    412.21096    0.9813122        11790 
   11800    5998.3998 2.5972628e+08 2.5974132e+08    9045.4501    412.75249    0.9818841        11800 
   11810    5991.4986 2.5972628e+08 2.5974132e+08    9044.2496    413.34441    0.9824577        11810 
   11820    5983.9991 2.5972629e+08 2.5974132e+08    9043.0569     413.9852    0.9830334        11820 
   11830    5975.8769 2.597263e+08 2.5974132e+08    9041.8731    414.66808   0.98361136        11830 
   11840    5967.0919 2.5972631e+08 2.5974132e+08    9040.7008    415.39442   0.98419111        11840 
   11850    5957.6002 2.5972632e+08 2.5974132e+08    9039.5422    416.13895   0.98477245        11850 
   11860    5947.8475 2.5972633e+08 2.5974132e+08    9038.4003    416.84755   0.98535514        11860 
   11870    5938.2014 2.5972635e+08 2.5974132e+08      9037.28    417.48146   0.98593783        11870 
   11880     5928.852 2.5972636e+08 2.5974132e+08    9036.1913    417.98194   0.98651632        11880 
   11890    5920.1475 2.5972637e+08 2.5974132e+08     9035.156    418.29386   0.98707937        11890 
   11900    5911.9942 2.5972637e+08 2.5974132e+08    9034.1674    418.45406   0.98763021        11900 
   11910     5904.082 2.5972638e+08 2.5974132e+08    9033.2094    418.51071   0.98817768        11910 
   11920    5896.1599 2.5972639e+08 2.5974132e+08    9032.2601    418.47777   0.98873444        11920 
   11930    5888.2224 2.597264e+08 2.5974132e+08    9031.3052    418.40569   0.98930998        11930 
   11940    5880.7714 2.5972641e+08 2.5974132e+08     9030.373    418.28897   0.98988778        11940 
   11950    5873.9632 2.5972642e+08 2.5974132e+08    9029.4593    418.15376   0.99047014        11950 
   11960     5867.389 2.5972642e+08 2.5974132e+08    9028.5549    418.03887   0.99106297        11960 
   11970    5860.7909 2.5972643e+08 2.5974132e+08    9027.6705    417.93516   0.99165907        11970 
   11980    5854.0266 2.5972644e+08 2.5974132e+08    9026.8075    417.79019   0.99225703        11980 
   11990    5846.9192 2.5972645e+08 2.5974132e+08    9025.9657    417.58112    0.9928568        11990 
   12000    5839.2346 2.5972646e+08 2.5974132e+08    9025.1454    418.45069   0.99345833        12000 
   12010    5830.0423 2.5972647e+08 2.5974132e+08    9024.3478    417.99788   0.99406153        12010 
   12020    5820.5078 2.5972648e+08 2.5974132e+08    9023.5746    417.56904   0.99466626        12020 
   12030    5811.1086 2.5972649e+08 2.5974132e+08    9022.8266    417.15857   0.99527244        12030 
   12040    5802.4286 2.597265e+08 2.5974132e+08    9022.1048    416.71245   0.99588007        12040 
   12050    5794.6652 2.597265e+08 2.5974132e+08    9021.4121    416.19721    0.9964866        12050 
   12060    5787.8231 2.5972651e+08 2.5974132e+08    9020.7518       415.63    0.9970883        12060 
   12070    5781.9626 2.5972652e+08 2.5974132e+08    9020.1208     414.9492   0.99768676        12070 
   12080    5776.7123 2.5972652e+08 2.5974132e+08    9019.5156    414.22795   0.99828352        12080 
   12090    5771.5711 2.5972653e+08 2.5974132e+08     9018.933    413.52275   0.99887983        12090 
   12100    5766.3462 2.5972654e+08 2.5974132e+08    9018.3706    412.81161   0.99947668        12100 
   12110    5760.9969 2.5972654e+08 2.5974132e+08    9017.8266    412.12865    1.0000748        12110 
   12120    5755.4837 2.5972655e+08 2.5974132e+08    9017.3003    411.39584    1.0006744        12120 
   12130    5749.6633 2.5972655e+08 2.5974132e+08    9016.7914    410.62485    1.0012758        12130 
   12140    5743.5323 2.5972656e+08 2.5974132e+08    9016.3001    409.87774    1.0018788        12140 
   12150    5737.1809 2.5972657e+08 2.5974132e+08     9015.827    409.17444    1.0024831        12150 
   12160    5730.6046 2.5972657e+08 2.5974132e+08     9015.373    408.51153    1.0030886        12160 
   12170    5723.6657 2.5972658e+08 2.5974132e+08    9014.9392     407.8637    1.0036946        12170 
   12180    5716.3806 2.5972659e+08 2.5974132e+08    9014.5277    407.22415    1.0042995        12180 
   12190    5709.0271 2.597266e+08 2.5974132e+08     9014.141    406.55226    1.0049006        12190 
   12200     5701.727 2.5972661e+08 2.5974132e+08    9013.7789    405.85083    1.0054988        12200 
   12210    5694.4176 2.5972661e+08 2.5974132e+08    9013.4406    405.09731    1.0060953        12210 
   12220    5687.1062 2.5972662e+08 2.5974132e+08    9013.1255    404.30494    1.0066912        12220 
   12230     5680.302 2.5972663e+08 2.5974132e+08    9012.8331     403.3783    1.0072876        12230 
   12240    5674.2792 2.5972663e+08 2.5974132e+08    9012.5633    402.28286    1.0078852        12240 
   12250    5668.5208 2.5972664e+08 2.5974132e+08    9012.3159    401.09417    1.0084832        12250 
   12260     5662.316 2.5972665e+08 2.5974132e+08    9012.0915    399.88396    1.0090792        12260 
   12270    5655.2561 2.5972665e+08 2.5974132e+08    9011.8892    398.73918    1.0096731        12270 
   12280    5647.4108 2.5972666e+08 2.5974132e+08    9011.7086    397.72441    1.0102649        12280 
   12290    5639.2944 2.5972667e+08 2.5974132e+08    9011.5495     396.7831    1.0108549        12290 
   12300    5631.7505 2.5972668e+08 2.5974132e+08    9011.4122    395.84524    1.0114434        12300 
   12310    5625.4065 2.5972668e+08 2.5974132e+08    9011.2967    394.82732    1.0120308        12310 
   12320    5620.0878 2.5972669e+08 2.5974132e+08    9011.2027    393.63583    1.0126173        12320 
   12330     5615.134 2.5972669e+08 2.5974132e+08    9011.1292    392.34437    1.0132029        12330 
   12340    5609.9785 2.597267e+08 2.5974132e+08    9011.0748    391.05506    1.0137879        12340 
   12350    5604.3497 2.5972671e+08 2.5974132e+08    9011.0382    389.79412    1.0143722        12350 
   12360    5598.5039 2.5972671e+08 2.5974132e+08    9011.0187    388.50766    1.0149559        12360 
   12370    5592.8364 2.5972672e+08 2.5974132e+08    9011.0156    387.15195    1.0155389        12370 
   12380    5587.6708 2.5972672e+08 2.5974132e+08    9011.0287    385.75788    1.0161213        12380 
   12390    5583.2535 2.5972673e+08 2.5974132e+08    9011.0574    384.29108    1.0167031        12390 
   12400    5579.3431 2.5972673e+08 2.5974132e+08    9011.1013    382.76605    1.0172842        12400 
   12410    5575.3393 2.5972673e+08 2.5974132e+08    9011.1599    381.24275    1.0178648        12410 
   12420    5570.9589 2.5972674e+08 2.5974132e+08    9011.2327    379.74396    1.0184448        12420 
   12430    5566.2965 2.5972674e+08 2.5974132e+08    9011.3191      378.321    1.0190244        12430 
   12440     5561.531 2.5972675e+08 2.5974132e+08    9011.4184    376.98283    1.0196036        12440 
   12450    5556.8592 2.5972675e+08 2.5974132e+08    9011.5305    375.69572    1.0201826        12450 
   12460    5552.4472 2.5972676e+08 2.5974132e+08    9011.6551    374.38022    1.0207615        12460 
   12470    5548.2145 2.5972676e+08 2.5974132e+08    9011.7919    373.03543    1.0213405        12470 
   12480     5543.929 2.5972676e+08 2.5974132e+08    9011.9407      371.671    1.0219198        12480 
   12490    5539.5549 2.5972677e+08 2.5974132e+08    9012.1013    370.27984    1.0224996        12490 
   12500    5535.1564 2.5972677e+08 2.5974132e+08    9012.2736    368.85887      1.02308        12500 
   12510    5530.7186 2.5972678e+08 2.5974132e+08    9012.4572    367.42928    1.0236611        12510 
   12520    5526.2698 2.5972678e+08 2.5974132e+08     9012.652     365.9741    1.0242429        12520 
   12530    5521.8394 2.5972679e+08 2.5974132e+08    9012.8574     364.4874    1.0248249        12530 
   12540     5517.419 2.5972679e+08 2.5974132e+08    9013.0733    362.96948    1.0254069        12540 
   12550    5513.0192 2.5972679e+08 2.5974132e+08    9013.2996    361.40941    1.0259891        12550 
   12560    5508.6592 2.597268e+08 2.5974132e+08    9013.5359    359.81762    1.0265714        12560 
   12570    5504.3763 2.597268e+08 2.5974132e+08    9013.7818    358.20094     1.027154        12570 
   12580    5500.2212 2.5972681e+08 2.5974132e+08    9014.0372    356.56143    1.0277368        12580 
   12590     5496.231 2.5972681e+08 2.5974132e+08    9014.3017    354.89303    1.0283198        12590 
   12600    5492.2385 2.5972681e+08 2.5974132e+08    9014.5751    353.17954    1.0289032        12600 
   12610     5488.008 2.5972682e+08 2.5974132e+08    9014.8571    351.45607    1.0294869        12610 
   12620    5483.6326 2.5972682e+08 2.5974132e+08    9015.1478    349.74255    1.0300708        12620 
   12630    5479.3357 2.5972683e+08 2.5974132e+08    9015.4468    348.03655    1.0306549        12630 
   12640    5475.1919 2.5972683e+08 2.5974132e+08    9015.7538    346.36447    1.0312392        12640 
   12650     5471.193 2.5972683e+08 2.5974132e+08    9016.0684    344.74517    1.0318236        12650 
   12660    5467.3147 2.5972684e+08 2.5974132e+08    9016.3901    343.15492    1.0324082        12660 
   12670      5463.47 2.5972684e+08 2.5974132e+08    9016.7183    341.58949     1.032993        12670 
   12680    5459.6073 2.5972684e+08 2.5974132e+08    9017.0522    340.04935     1.033578        12680 
   12690    5455.7428 2.5972685e+08 2.5974132e+08    9017.3912    338.49905    1.0341633        12690 
   12700    5451.9145 2.5972685e+08 2.5974132e+08    9017.7346    336.94858    1.0347487        12700 
   12710     5448.139 2.5972685e+08 2.5974132e+08    9018.0816    335.36983    1.0353345        12710 
   12720    5444.3777 2.5972686e+08 2.5974132e+08    9018.4315    333.77039    1.0359206        12720 
   12730    5440.5863 2.5972686e+08 2.5974132e+08    9018.7835    332.15507     1.036507        12730 
   12740     5436.739 2.5972686e+08 2.5974132e+08    9019.1369    330.53489    1.0370937        12740 
   12750    5432.8243 2.5972687e+08 2.5974132e+08     9019.491    328.88542    1.0376804        12750 
   12760    5428.8572 2.5972687e+08 2.5974132e+08    9019.8452    327.22644     1.038267        12760 
   12770    5424.8731 2.5972688e+08 2.5974132e+08    9020.1989    325.55867    1.0388535        12770 
   12780    5420.8792 2.5972688e+08 2.5974132e+08    9020.5517    323.88279    1.0394398        12780 
   12790     5416.903 2.5972688e+08 2.5974132e+08    9020.9032    322.20688    1.0400259        12790 
   12800    5413.0084 2.5972689e+08 2.5974132e+08     9021.253    320.53747    1.0406119        12800 
   12810    5409.2321 2.5972689e+08 2.5974132e+08    9021.6008     318.8552    1.0411977        12810 
   12820    5405.5355 2.5972689e+08 2.5974132e+08    9021.9462    317.17727    1.0417833        12820 
   12830    5401.8263 2.597269e+08 2.5974132e+08    9022.2887    315.48523    1.0423686        12830 
   12840    5398.0704 2.597269e+08 2.5974132e+08    9022.6278    313.77892    1.0429538        12840 
   12850    5394.2701 2.597269e+08 2.5974132e+08    9022.9631    312.09507    1.0435387        12850 
   12860    5390.4008 2.5972691e+08 2.5974132e+08    9023.2939    310.45449    1.0441233        12860 
   12870    5386.4693 2.5972691e+08 2.5974132e+08    9023.6197    308.83307    1.0447076        12870 
   12880     5382.552 2.5972691e+08 2.5974132e+08    9023.9399    307.23148    1.0452917        12880 
   12890    5378.7113 2.5972692e+08 2.5974132e+08    9024.2541    305.64335    1.0458755        12890 
   12900    5374.9217 2.5972692e+08 2.5974132e+08    9024.5616    304.06487    1.0464591        12900 
   12910    5371.1479 2.5972692e+08 2.5974132e+08    9024.8619    302.50186    1.0470424        12910 
   12920    5367.3895 2.5972693e+08 2.5974132e+08    9025.1544    300.94057    1.0476254        12920 
   12930    5363.6357 2.5972693e+08 2.5974132e+08    9025.4386    299.38164    1.0482083        12930 
   12940    5359.8616 2.5972694e+08 2.5974132e+08    9025.7139    297.84687    1.0487909        12940 
   12950    5356.0485 2.5972694e+08 2.5974132e+08    9025.9797     296.3492    1.0493734        12950 
   12960    5352.2306 2.5972694e+08 2.5974132e+08    9026.2357    294.85582    1.0499557        12960 
   12970    5348.4503 2.5972695e+08 2.5974132e+08    9026.4813    293.36828    1.0505378        12970 
   12980    5344.6987 2.5972695e+08 2.5974132e+08    9026.7159    291.90771    1.0511199        12980 
   12990    5340.9672 2.5972695e+08 2.5974132e+08    9026.9391    290.45618    1.0517019        12990 
   13000    5337.2636 2.5972696e+08 2.5974132e+08    9027.1504    289.05379    1.0522839        13000 
   13010    5333.5325 2.5972696e+08 2.5974132e+08    9027.3494    287.59427    1.0528659        13010 
   13020    5329.7808 2.5972696e+08 2.5974132e+08    9027.5356    286.13841    1.0534479        13020 
   13030    5326.0428 2.5972697e+08 2.5974132e+08    9027.7087    284.66874      1.05403        13030 
   13040    5322.3436 2.5972697e+08 2.5974132e+08    9027.8681    283.19925    1.0546121        13040 
   13050    5318.6577 2.5972697e+08 2.5974132e+08    9028.0134    281.75734    1.0551943        13050 
   13060    5315.0092 2.5972698e+08 2.5974132e+08    9028.1441    280.30421    1.0557765        13060 
   13070    5311.4145 2.5972698e+08 2.5974132e+08    9028.2595    278.84375     1.056359        13070 
   13080    5307.8555 2.5972698e+08 2.5974132e+08    9028.3591    277.39573    1.0569415        13080 
   13090    5304.3076 2.5972699e+08 2.5974132e+08    9028.4421    275.96061    1.0575243        13090 
   13100    5300.7752 2.5972699e+08 2.5974132e+08     9028.508    274.53805    1.0581073        13100 
   13110    5297.2465 2.5972699e+08 2.5974132e+08    9028.5561    273.12885    1.0586906        13110 
   13120    5293.6841  2.59727e+08 2.5974132e+08    9028.5858    271.73992    1.0592743        13120 
   13130    5290.0984  2.59727e+08 2.5974132e+08    9028.5965    270.36451    1.0598584        13130 
   13140    5286.4811 2.5972701e+08 2.5974132e+08    9028.5878    269.01138    1.0604429        13140 
   13150    5282.7968 2.5972701e+08 2.5974132e+08    9028.5592    267.69354    1.0610277        13150 
   13160    5279.0506 2.5972701e+08 2.5974132e+08    9028.5103    266.39388    1.0616128        13160 
   13170    5275.2306 2.5972702e+08 2.5974132e+08    9028.4409    265.12468     1.062198        13170 
   13180    5271.3357 2.5972702e+08 2.5974132e+08    9028.3506    263.89569    1.0627834        13180 
   13190    5267.4026 2.5972703e+08 2.5974132e+08    9028.2393    262.70613    1.0633689        13190 
   13200    5263.4534 2.5972703e+08 2.5974132e+08    9028.1065    261.56275    1.0639547        13200 
   13210    5259.4831 2.5972703e+08 2.5974132e+08     9027.952    260.45254    1.0645406        13210 
   13220    5255.5038 2.5972704e+08 2.5974132e+08    9027.7753    259.36841    1.0651268        13220 
   13230    5251.5304 2.5972704e+08 2.5974132e+08     9027.576    258.32113    1.0657134        13230 
   13240    5247.5757 2.5972705e+08 2.5974132e+08    9027.3536    257.30157    1.0663003        13240 
   13250     5243.654 2.5972705e+08 2.5974132e+08    9027.1079    256.28673    1.0668876        13250 
   13260    5239.7648 2.5972705e+08 2.5974132e+08    9026.8383      255.278    1.0674753        13260 
   13270    5235.8994 2.5972706e+08 2.5974132e+08    9026.5443    254.28917    1.0680635        13270 
   13280     5232.045 2.5972706e+08 2.5974132e+08    9026.2257    253.29653    1.0686521        13280 
   13290    5228.1822 2.5972707e+08 2.5974132e+08    9025.8822    252.29188    1.0692407        13290 
   13300    5224.2902 2.5972707e+08 2.5974132e+08    9025.5136    251.29729    1.0698294        13300 
   13310    5220.3843 2.5972708e+08 2.5974132e+08    9025.1197    250.30095    1.0704181        13310 
   13320    5216.4716 2.5972708e+08 2.5974132e+08    9024.7006     249.3167    1.0710068        13320 
   13330    5212.5531 2.5972708e+08 2.5974132e+08    9024.2559    248.36321    1.0715954        13330 
   13340    5208.6321 2.5972709e+08 2.5974132e+08    9023.7858    247.43127     1.072184        13340 
   13350    5204.7171 2.5972709e+08 2.5974132e+08    9023.2902    246.50995    1.0727725        13350 
   13360    5200.8218 2.597271e+08 2.5974132e+08    9022.7691    245.60252     1.073361        13360 
   13370    5196.9305 2.597271e+08 2.5974132e+08    9022.2224    244.72265    1.0739494        13370 
   13380    5193.0346 2.5972711e+08 2.5974132e+08    9021.6503    243.85808    1.0745377        13380 
   13390      5189.15 2.5972711e+08 2.5974132e+08    9021.0525    243.00651     1.075126        13390 
   13400    5185.2867 2.5972711e+08 2.5974132e+08    9020.4289    242.17986    1.0757142        13400 
   13410    5181.4536 2.5972712e+08 2.5974132e+08    9019.7792    241.37028    1.0763023        13410 
   13420    5177.6579 2.5972712e+08 2.5974132e+08    9019.1035    240.57396    1.0768903        13420 
   13430    5173.8832 2.5972713e+08 2.5974132e+08    9018.4013    239.80907    1.0774783        13430 
   13440    5170.1078 2.5972713e+08 2.5974132e+08    9017.6724     239.0742    1.0780662        13440 
   13450    5166.3253 2.5972714e+08 2.5974132e+08    9016.9166    238.36154     1.078654        13450 
   13460    5162.5626 2.5972714e+08 2.5974132e+08    9016.1336    237.66801    1.0792418        13460 
   13470    5158.8333 2.5972715e+08 2.5974132e+08    9015.3231    237.00784    1.0798296        13470 
   13480    5155.1256 2.5972715e+08 2.5974132e+08    9014.4848    236.37383    1.0804174        13480 
   13490    5151.4308 2.5972716e+08 2.5974132e+08    9013.6184    235.76073    1.0810052        13490 
   13500    5147.7357 2.5972716e+08 2.5974132e+08    9012.7236    235.18277     1.081593        13500 
   13510    5144.0408 2.5972716e+08 2.5974132e+08    9011.8002    234.62724     1.082181        13510 
   13520    5140.3775 2.5972717e+08 2.5974132e+08    9010.8481    234.08572    1.0827691        13520 
   13530    5136.7699 2.5972717e+08 2.5974132e+08    9009.8673    233.55188    1.0833573        13530 
   13540    5133.1922 2.5972718e+08 2.5974132e+08    9008.8576    233.04092    1.0839456        13540 
   13550    5129.6463 2.5972718e+08 2.5974132e+08    9007.8191    232.53161    1.0845341        13550 
   13560    5126.1664 2.5972719e+08 2.5974132e+08    9006.7517    232.00608    1.0851228        13560 
   13570    5122.7585 2.5972719e+08 2.5974132e+08    9005.6554    231.46965    1.0857116        13570 
   13580     5119.387 2.597272e+08 2.5974132e+08    9004.5303     230.9349    1.0863005        13580 
   13590      5116.04 2.597272e+08 2.5974132e+08    9003.3764    230.40637    1.0868895        13590 
   13600    5112.7493 2.5972721e+08 2.5974132e+08    9002.1937    229.87885    1.0874785        13600 
   13610    5109.5083 2.5972721e+08 2.5974132e+08    9000.9823    229.36491    1.0880676        13610 
   13620    5106.2801 2.5972721e+08 2.5974132e+08     8999.742    228.87652    1.0886566        13620 
   13630    5103.0634 2.5972722e+08 2.5974132e+08    8998.4727    228.41132    1.0892457        13630 
   13640     5099.895 2.5972722e+08 2.5974132e+08    8997.1743    227.95952    1.0898347        13640 
   13650    5096.7672 2.5972723e+08 2.5974132e+08    8995.8468    227.53391    1.0904237        13650 
   13660    5093.6391 2.5972723e+08 2.5974132e+08    8994.4899    227.14412    1.0910126        13660 
   13670    5090.5228 2.5972724e+08 2.5974132e+08    8993.1035    226.77741    1.0916016        13670 
   13680     5087.437 2.5972724e+08 2.5974132e+08    8991.6877    226.44036    1.0921904        13680 
   13690    5084.3863 2.5972725e+08 2.5974132e+08    8990.2422     226.1419    1.0927792        13690 
   13700     5081.387 2.5972725e+08 2.5974132e+08    8988.7672    225.86889    1.0933678        13700 
   13710    5078.4614 2.5972725e+08 2.5974132e+08    8987.2626    225.61332    1.0939563        13710 
   13720    5075.6048 2.5972726e+08 2.5974132e+08    8985.7281    225.37331    1.0945446        13720 
   13730    5072.8012 2.5972726e+08 2.5974132e+08    8984.1636     225.1531    1.0951328        13730 
   13740    5070.0502 2.5972727e+08 2.5974132e+08    8982.5692    224.95108    1.0957208        13740 
   13750    5067.3617 2.5972727e+08 2.5974132e+08    8980.9448    224.75596    1.0963085        13750 
   13760    5064.7233 2.5972728e+08 2.5974132e+08    8979.2904    224.57918    1.0968961        13760 
   13770    5062.1033 2.5972728e+08 2.5974132e+08    8977.6059    224.42755    1.0974835        13770 
   13780    5059.5073 2.5972729e+08 2.5974132e+08    8975.8913    224.29877    1.0980706        13780 
   13790    5056.9721 2.5972729e+08 2.5974132e+08    8974.1467    224.17654    1.0986576        13790 
   13800    5054.5166 2.5972729e+08 2.5974132e+08     8972.372    224.06667    1.0992444        13800 
   13810    5052.1245 2.597273e+08 2.5974132e+08     8970.567     223.9823     1.099831        13810 
   13820    5049.7754 2.597273e+08 2.5974132e+08    8968.7317    223.91343    1.1004175        13820 
   13830    5047.4641 2.5972731e+08 2.5974132e+08     8966.866    223.86759    1.1010039        13830 
   13840    5045.2032 2.5972731e+08 2.5974132e+08      8964.97    223.85596    1.1015901        13840 
   13850    5042.9851 2.5972731e+08 2.5974132e+08    8963.0436    223.87678    1.1021763        13850 
   13860    5040.7753 2.5972732e+08 2.5974132e+08    8961.0868    223.93154    1.1027623        13860 
   13870    5038.5454 2.5972732e+08 2.5974132e+08    8959.0995    224.01954    1.1033483        13870 
   13880    5036.3057 2.5972733e+08 2.5974132e+08    8957.0817    224.13641    1.1039341        13880 
   13890    5034.0909 2.5972733e+08 2.5974132e+08    8955.0336    224.26912    1.1045199        13890 
   13900    5031.9044 2.5972734e+08 2.5974132e+08    8952.9552    224.43209    1.1051056        13900 
   13910    5029.7561 2.5972734e+08 2.5974132e+08    8950.8465    224.61993    1.1056912        13910 
   13920    5027.6534 2.5972734e+08 2.5974132e+08    8948.7077    224.82905    1.1062767        13920 
   13930    5025.5836 2.5972735e+08 2.5974132e+08    8946.5389    225.05339    1.1068621        13930 
   13940    5023.5337 2.5972735e+08 2.5974132e+08      8944.34    225.29872    1.1074475        13940 
   13950    5021.5012 2.5972736e+08 2.5974132e+08    8942.1111    225.56839    1.1080327        13950 
   13960    5019.5008 2.5972736e+08 2.5974132e+08    8939.8523    225.84755    1.1086179        13960 
   13970    5017.5133 2.5972737e+08 2.5974132e+08    8937.5636    226.15977    1.1092029        13970 
   13980    5015.3438 2.5972737e+08 2.5974132e+08    8935.2451    226.54932    1.1097879        13980 
   13990    5012.3962 2.5972738e+08 2.5974132e+08    8932.8969    227.01315    1.1103727        13990 
   14000    5007.8855 2.5972738e+08 2.5974132e+08    8930.5192    227.25445    1.1109574        14000 
   14010    5001.8657 2.5972739e+08 2.5974132e+08    8928.1121    227.81321     1.111542        14010 
   14020    4995.2702 2.597274e+08 2.5974132e+08    8925.6756    228.37418    1.1121265        14020 
   14030    4989.3736 2.5972741e+08 2.5974132e+08    8923.2093    228.95042     1.112711        14030 
   14040    4983.6974 2.5972742e+08 2.5974132e+08    8920.7068    229.55566    1.1132971        14040 
   14050    4976.2171 2.5972743e+08 2.5974132e+08    8918.1432    230.35518    1.1138906        14050 
   14060    4964.4818 2.5972744e+08 2.5974132e+08    8915.4418    231.43884    1.1145087        14060 
   14070    4946.4611 2.5972746e+08 2.5974132e+08    8912.5962    232.93552    1.1151522        14070 
   14080    4926.0653 2.5972749e+08 2.5974132e+08    8909.6487    234.40468    1.1158109        14080 
   14090    4911.3483 2.597275e+08 2.5974132e+08    8906.5688     235.2423    1.1164909        14090 
   14100    4902.9581 2.5972751e+08 2.5974132e+08    8903.3263     235.4249    1.1171981        14100 
   14110    4895.4025 2.5972753e+08 2.5974132e+08    8899.7765     235.3425    1.1179626        14110 
   14120    4887.4467 2.5972754e+08 2.5974132e+08    8896.3052     235.2452    1.1187012        14120 
   14130    4884.7576 2.5972754e+08 2.5974132e+08    8892.9084    234.99552    1.1194161        14130 
   14140    4885.7058 2.5972755e+08 2.5974132e+08    8889.4695    234.63924    1.1201322        14140 
   14150    4885.2252 2.5972755e+08 2.5974132e+08    8885.9448    234.55617    1.1208587        14150 
   14160    4882.4841 2.5972756e+08 2.5974132e+08    8882.3114    234.83432    1.1216003        14160 
   14170    4878.4859 2.5972756e+08 2.5974132e+08     8878.554     235.3486      1.12236        14170 
   14180    4874.6251 2.5972757e+08 2.5974132e+08    8874.7322     235.9973    1.1231256        14180 
   14190    4871.7298 2.5972758e+08 2.5974132e+08    8870.8838    236.68192    1.1238898        14190 
   14200    4869.7085 2.5972758e+08 2.5974132e+08    8866.9855    237.33457    1.1246571        14200 
   14210    4867.8261 2.5972759e+08 2.5974132e+08    8863.0211    237.97838    1.1254304        14210 
   14220    4865.6109 2.597276e+08 2.5974132e+08    8859.0127     238.6851     1.126205        14220 
   14230    4863.1573 2.597276e+08 2.5974132e+08     8854.966    239.43758    1.1269795        14230 
   14240    4860.6442 2.5972761e+08 2.5974132e+08     8850.881    240.22017     1.127754        14240 
   14250    4858.0591 2.5972762e+08 2.5974132e+08    8846.7579    241.08778    1.1285285        14250 
   14260    4855.4647 2.5972762e+08 2.5974132e+08    8842.5977    241.99416    1.1293031        14260 
   14270    4852.9218 2.5972763e+08 2.5974132e+08    8838.4013    242.91688    1.1300776        14270 
   14280    4850.3403 2.5972764e+08 2.5974132e+08    8834.1695     243.9309    1.1308521        14280 
   14290    4847.7799 2.5972764e+08 2.5974132e+08    8829.9033    244.97081    1.1316266        14290 
   14300    4845.2723 2.5972765e+08 2.5974132e+08    8825.6038    246.02629    1.1324011        14300 
   14310    4842.6863 2.5972766e+08 2.5974132e+08     8821.272    247.14174    1.1331756        14310 
   14320    4840.0893 2.5972766e+08 2.5974132e+08    8816.9091    248.26465    1.1339501        14320 
   14330    4837.5029 2.5972767e+08 2.5974132e+08    8812.5161    249.40871    1.1347246        14330 
   14340    4834.8285 2.5972768e+08 2.5974132e+08     8808.094    250.58717    1.1354991        14340 
   14350    4832.1785 2.5972768e+08 2.5974132e+08    8803.6442    251.76264    1.1362736        14350 
   14360    4829.6011 2.5972769e+08 2.5974132e+08     8799.168    252.93238    1.1370481        14360 
   14370     4827.015 2.597277e+08 2.5974132e+08    8794.6665    254.11985    1.1378226        14370 
   14380    4824.4944 2.5972771e+08 2.5974132e+08    8790.1409    255.27835    1.1385971        14380 
   14390    4821.9875 2.5972771e+08 2.5974132e+08    8785.5925    256.41923    1.1393716        14390 
   14400    4819.4034 2.5972772e+08 2.5974132e+08    8781.0225    257.57661    1.1401461        14400 
   14410    4816.8229 2.5972773e+08 2.5974132e+08    8776.4322    258.72464    1.1409205        14410 
   14420    4814.1974 2.5972773e+08 2.5974132e+08    8771.8228    259.88289     1.141695        14420 
   14430    4811.4885 2.5972774e+08 2.5974132e+08    8767.1957    261.06899    1.1424695        14430 
   14440    4808.7961 2.5972775e+08 2.5974132e+08    8762.5518    262.25817    1.1432439        14440 
   14450    4806.1138 2.5972776e+08 2.5974132e+08    8757.8924    263.45232    1.1440184        14450 
   14460    4803.4549 2.5972776e+08 2.5974132e+08    8753.2183    264.65043    1.1447928        14460 
   14470    4800.8297 2.5972777e+08 2.5974132e+08    8748.5309    265.83926    1.1455673        14470 
   14480    4798.1978 2.5972778e+08 2.5974132e+08    8743.8352    267.03237    1.1463411        14480 
   14490    4795.6297 2.5972779e+08 2.5974132e+08    8739.1386    268.22589    1.1471132        14490 
   14500    4793.1466 2.5972779e+08 2.5974132e+08    8734.4427    269.41022    1.1478835        14500 
   14510    4790.6561 2.597278e+08 2.5974132e+08    8729.7482    270.62662    1.1486521        14510 
   14520    4788.1813 2.5972781e+08 2.5974132e+08    8725.0564    271.87297    1.1494188        14520 
   14530    4785.7571 2.5972781e+08 2.5974132e+08    8720.3684    273.14149    1.1501838        14530 
   14540    4783.3471 2.5972782e+08 2.5974132e+08    8715.6844    274.44316    1.1509471        14540 
   14550    4780.9508 2.5972783e+08 2.5974132e+08    8711.0047    275.76937    1.1517089        14550 
   14560    4778.5317 2.5972784e+08 2.5974132e+08    8706.3293    277.12013    1.1524692        14560 
   14570    4776.0856 2.5972784e+08 2.5974132e+08    8701.6574    278.50063    1.1532284        14570 
   14580    4773.6754 2.5972785e+08 2.5974132e+08     8696.988     279.8999    1.1539868        14580 
   14590    4771.2611 2.5972786e+08 2.5974132e+08    8692.3187    281.30492    1.1547448        14590 
   14600    4768.7778 2.5972786e+08 2.5974132e+08    8687.6474    282.71138    1.1555031        14600 
   14610    4766.2969 2.5972787e+08 2.5974132e+08    8682.9807    284.11783    1.1562605        14610 
   14620    4763.8743 2.5972788e+08 2.5974132e+08    8678.3196    285.50269    1.1570173        14620 
   14630    4761.4698 2.5972789e+08 2.5974132e+08    8673.6625    286.88319    1.1577736        14630 
   14640    4759.0683 2.5972789e+08 2.5974132e+08    8669.0083    288.24599    1.1585298        14640 
   14650    4756.6791 2.597279e+08 2.5974132e+08    8664.3566    289.58552    1.1592861        14650 
   14660    4754.2874 2.5972791e+08 2.5974132e+08    8659.7076    290.89487    1.1600425        14660 
   14670    4751.8516 2.5972791e+08 2.5974132e+08     8655.062    292.19308    1.1607992        14670 
   14680      4749.35 2.5972792e+08 2.5974132e+08    8650.4204     293.4886     1.161556        14680 
   14690    4746.5328 2.5972793e+08 2.5974132e+08     8645.783    294.81271    1.1623132        14690 
   14700    4743.5461 2.5972794e+08 2.5974132e+08    8641.1505    296.07857    1.1630708        14700 
   14710    4740.8235 2.5972794e+08 2.5974132e+08    8636.5231    297.31563    1.1638289        14710 
   14720    4738.2174 2.5972795e+08 2.5974132e+08    8631.9005    298.57776    1.1645877        14720 
   14730     4735.578 2.5972796e+08 2.5974132e+08    8627.2826    299.82846    1.1653473        14730 
   14740    4732.8787 2.5972797e+08 2.5974132e+08    8622.6688    301.12266    1.1661079        14740 
   14750    4729.7077 2.5972797e+08 2.5974132e+08    8618.0577    302.56665    1.1668699        14750 
   14760    4720.7817 2.5972799e+08 2.5974132e+08    8613.4485    304.49277    1.1676337        14760 
   14770    4705.9944 2.5972801e+08 2.5974132e+08    8608.8402    306.59552    1.1683995        14770 
   14780     4697.119 2.5972802e+08 2.5974132e+08    8604.2298    308.16548    1.1691679        14780 
   14790    4694.1873 2.5972803e+08 2.5974132e+08    8599.7346    308.84444    1.1699196        14790 
   14800    4690.8147 2.5972803e+08 2.5974132e+08    8595.5336     309.2765    1.1706244        14800 
   14810    4684.0981 2.5972805e+08 2.5974132e+08    8591.4938    310.03491    1.1713043        14810 
   14820    4677.2712 2.5972806e+08 2.5974132e+08    8587.5115    310.84634    1.1719768        14820 
   14830    4673.1441 2.5972806e+08 2.5974132e+08    8583.4934    311.67212    1.1726577        14830 
   14840    4670.3339 2.5972807e+08 2.5974132e+08    8579.3519    312.54384     1.173362        14840 
   14850    4666.6191 2.5972808e+08 2.5974132e+08    8575.1606    313.43954    1.1740775        14850 
   14860    4661.9097 2.5972809e+08 2.5974132e+08    8570.9561    314.40727    1.1747981        14860 
   14870    4657.0866 2.597281e+08 2.5974132e+08     8566.691    315.48282    1.1755321        14870 
   14880    4652.3826 2.5972811e+08 2.5974132e+08    8562.3665    316.69732    1.1762796        14880 
   14890    4647.4186 2.5972812e+08 2.5974132e+08    8558.0659    317.98292    1.1770263        14890 
   14900    4642.4752 2.5972812e+08 2.5974132e+08     8553.797    319.21985     1.177771        14900 
   14910    4638.0181 2.5972813e+08 2.5974132e+08    8549.5566    320.39588    1.1785142        14910 
   14920    4633.9348 2.5972814e+08 2.5974132e+08    8545.3408    321.50719    1.1792568        14920 
   14930    4630.0883 2.5972815e+08 2.5974132e+08    8541.1462    322.54674    1.1799994        14930 
   14940    4626.2996 2.5972816e+08 2.5974132e+08     8536.969     323.5018    1.1807428        14940 
   14950    4622.3177 2.5972817e+08 2.5974132e+08    8532.8031    324.43087    1.1814882        14950 
   14960    4615.8948 2.5972818e+08 2.5974132e+08    8528.6425    325.57755     1.182237        14960 
   14970    4604.6628 2.5972819e+08 2.5974132e+08    8524.4818    326.80352    1.1829901        14970 
   14980     4596.261 2.597282e+08 2.5974132e+08    8520.3113     327.6782    1.1837498        14980 
   14990    4592.2543 2.5972821e+08 2.5974132e+08    8516.1147    328.04524    1.1845191        14990 
   15000    4586.5718 2.5972822e+08 2.5974132e+08    8511.8794    328.14639    1.1853008        15000 
   15010    4581.3931 2.5972823e+08 2.5974132e+08    8507.6573    328.89608    1.1860855        15010 
   15020    4576.7448 2.5972824e+08 2.5974132e+08     8503.471    329.63763    1.1868691        15020 
   15030    4571.9386 2.5972825e+08 2.5974132e+08    8499.3121     330.4073    1.1876534        15030 
   15040    4565.9854 2.5972826e+08 2.5974132e+08    8495.1857    331.29491    1.1884376        15040 
   15050    4557.7495 2.5972827e+08 2.5974132e+08    8491.0938    332.31049    1.1892217        15050 
   15060    4547.1771 2.5972829e+08 2.5974132e+08    8487.0377    333.40096    1.1900057        15060 
   15070    4537.7552 2.597283e+08 2.5974132e+08     8483.019    334.36066    1.1907897        15070 
   15080    4531.7806 2.5972831e+08 2.5974132e+08    8479.0394    334.93592    1.1915736        15080 
   15090    4526.8341 2.5972832e+08 2.5974132e+08    8475.1002    335.32441    1.1923575        15090 
   15100    4521.9275 2.5972833e+08 2.5974132e+08    8471.2248    335.64763    1.1931368        15100 
   15110    4517.4102 2.5972834e+08 2.5974132e+08     8467.498    335.90426    1.1938942        15110 
   15120    4513.3685 2.5972834e+08 2.5974132e+08    8463.8963    336.10224    1.1946338        15120 
   15130    4509.5313 2.5972835e+08 2.5974132e+08    8460.3963    336.24045    1.1953598        15130 
   15140    4505.5787 2.5972836e+08 2.5974132e+08    8456.9679    336.28467    1.1960781        15140 
   15150    4501.5951 2.5972837e+08 2.5974132e+08    8453.5754    336.20976    1.1967959        15150 
   15160    4497.8267 2.5972837e+08 2.5974132e+08    8450.1806     336.0244    1.1975214        15160 
   15170    4494.3187 2.5972838e+08 2.5974132e+08    8446.7461    335.78398    1.1982628        15170 
   15180    4491.0616 2.5972839e+08 2.5974132e+08    8443.3718    335.53762    1.1989988        15180 
   15190    4487.8536 2.5972839e+08 2.5974132e+08    8440.0997    335.27494    1.1997198        15190 
   15200    4484.5723 2.597284e+08 2.5974132e+08    8436.8869    335.01816     1.200435        15200 
   15210    4481.2813 2.5972841e+08 2.5974132e+08    8433.7047     334.7819    1.2011506        15210 
   15220    4478.0338 2.5972841e+08 2.5974132e+08    8430.5347    334.57317    1.2018709        15220 
   15230     4474.848 2.5972842e+08 2.5974132e+08    8427.3654    334.36895    1.2025987        15230 
   15240    4471.7848 2.5972842e+08 2.5974132e+08    8424.1901     334.1086    1.2033358        15240 
   15250    4468.9162 2.5972843e+08 2.5974132e+08    8421.0095    333.77091    1.2040824        15250 
   15260    4466.2346 2.5972844e+08 2.5974132e+08    8417.8673    333.35172    1.2048283        15260 
   15270    4463.6906 2.5972844e+08 2.5974132e+08    8414.7714    332.84609    1.2055716        15270 
   15280    4461.2413 2.5972845e+08 2.5974132e+08    8411.7221    332.25233    1.2063119        15280 
   15290    4458.7344 2.5972845e+08 2.5974132e+08    8408.7202    331.60525     1.207049        15290 
   15300    4455.9677 2.5972846e+08 2.5974132e+08    8405.7643    330.91342    1.2077828        15300 
   15310    4452.7753 2.5972847e+08 2.5974132e+08    8402.8498    330.20774    1.2085144        15310 
   15320    4449.0003 2.5972847e+08 2.5974132e+08    8399.9698    329.47998    1.2092453        15320 
   15330    4444.3118 2.5972848e+08 2.5974132e+08    8397.1168     328.7447    1.2099775        15330 
   15340     4438.365 2.5972849e+08 2.5974132e+08    8394.2839    328.02833    1.2107126        15340 
   15350    4431.4262 2.597285e+08 2.5974132e+08    8391.4664    327.28062    1.2114519        15350 
   15360    4425.3748 2.5972851e+08 2.5974132e+08    8388.6628     326.3434     1.212196        15360 
   15370    4422.3762 2.5972851e+08 2.5974132e+08    8385.9072    325.09849    1.2129355        15370 
   15380    4421.8545 2.5972852e+08 2.5974132e+08    8383.2022    323.64624    1.2136694        15380 
   15390    4421.7481 2.5972852e+08 2.5974132e+08    8380.5371    322.13535    1.2144005        15390 
   15400    4420.6997 2.5972852e+08 2.5974132e+08    8377.9059    320.70108    1.2151301        15400 
   15410    4418.4034 2.5972853e+08 2.5974132e+08    8375.3078     319.4037    1.2158585        15410 
   15420    4415.0147 2.5972853e+08 2.5974132e+08    8372.7517    318.20306    1.2165828        15420 
   15430    4411.1987 2.5972854e+08 2.5974132e+08    8370.2386    316.98618    1.2173025        15430 
   15440    4408.0846 2.5972854e+08 2.5974132e+08    8367.7671    315.64541    1.2180176        15440 
   15450    4405.8625 2.5972855e+08 2.5974132e+08    8365.3341    314.17388    1.2187289        15450 
   15460    4403.5759 2.5972855e+08 2.5974132e+08    8362.9352    312.65557    1.2194372        15460 
   15470    4400.6346 2.5972856e+08 2.5974132e+08    8360.5652    311.21068     1.220144        15470 
   15480     4397.044 2.5972857e+08 2.5974132e+08    8358.2198    309.88523    1.2208504        15480 
   15490    4392.5685 2.5972857e+08 2.5974132e+08    8355.8972     308.7219    1.2215566        15490 
   15500    4386.7966 2.5972858e+08 2.5974132e+08    8353.6133    307.71018    1.2222578        15500 
   15510    4380.2167 2.5972859e+08 2.5974132e+08    8351.3939    306.77711    1.2229456        15510 
   15520    4374.2633 2.597286e+08 2.5974132e+08    8349.2334    305.76727    1.2236213        15520 
   15530    4370.0792 2.597286e+08 2.5974132e+08    8347.1188    304.59694    1.2242884        15530 
   15540    4367.4569 2.5972861e+08 2.5974132e+08    8345.0355    303.24512    1.2249513        15540 
   15550    4365.4968 2.5972861e+08 2.5974132e+08    8342.9688    301.74626    1.2256145        15550 
   15560    4363.4807 2.5972862e+08 2.5974132e+08    8340.9064    300.17876    1.2262819        15560 
   15570    4360.7493 2.5972862e+08 2.5974132e+08    8338.8386    298.62091    1.2269566        15570 
   15580    4356.7209 2.5972863e+08 2.5974132e+08    8336.7601    297.14253    1.2276402        15580 
   15590    4351.3492 2.5972863e+08 2.5974132e+08    8334.6947     295.7658     1.228325        15590 
   15600    4345.8975 2.5972864e+08 2.5974132e+08    8332.6548    294.42937    1.2290065        15600 
   15610    4341.6999 2.5972865e+08 2.5974132e+08    8330.6314    293.07367    1.2296875        15610 
   15620    4338.2326 2.5972865e+08 2.5974132e+08    8328.6189    291.74648    1.2303698        15620 
   15630    4334.3742 2.5972866e+08 2.5974132e+08     8326.619    290.44851    1.2310527        15630 
   15640    4329.8035 2.5972867e+08 2.5974132e+08    8324.6388    289.18883    1.2317336        15640 
   15650    4324.8349 2.5972867e+08 2.5974132e+08    8322.6765    287.95165    1.2324132        15650 
   15660    4319.8224 2.5972868e+08 2.5974132e+08    8320.7304    286.73624     1.233092        15660 
   15670    4314.6551 2.5972869e+08 2.5974132e+08    8318.7994     285.5611    1.2337704        15670 
   15680    4309.0416 2.5972869e+08 2.5974132e+08    8316.8825      284.431     1.234449        15680 
   15690    4302.9468 2.597287e+08 2.5974132e+08    8314.9812    283.39287    1.2351274        15690 
   15700    4296.4816 2.5972871e+08 2.5974132e+08    8313.1006    282.48568     1.235804        15700 
   15710    4289.8189 2.5972872e+08 2.5974132e+08    8311.2391    281.64441    1.2364797        15710 
   15720    4283.1218 2.5972873e+08 2.5974132e+08    8309.3947    280.83341    1.2371552        15720 
   15730    4276.4459 2.5972874e+08 2.5974132e+08    8307.5657    280.09873    1.2378314        15730 
   15740    4269.8163 2.5972875e+08 2.5974132e+08    8305.7576    279.40182     1.238506        15740 
   15750    4263.3056 2.5972875e+08 2.5974132e+08    8303.9814    278.75915    1.2391748        15750 
   15760    4256.9795 2.5972876e+08 2.5974132e+08    8302.2343    278.12815    1.2398386        15760 
   15770    4250.9667 2.5972877e+08 2.5974132e+08    8300.5123    277.42952    1.2404988        15770 
   15780    4245.3335 2.5972878e+08 2.5974132e+08    8298.8114    276.60662    1.2411571        15780 
   15790      4240.11 2.5972878e+08 2.5974132e+08    8297.1275    275.69475     1.241815        15790 
   15800    4235.2292 2.5972879e+08 2.5974132e+08    8295.4637    274.71914    1.2424713        15800 
   15810    4230.2017 2.597288e+08 2.5974132e+08    8293.8311    273.72962    1.2431211        15810 
   15820    4224.3963 2.597288e+08 2.5974132e+08    8292.2221    272.72097    1.2437674        15820 
   15830    4217.7948 2.5972881e+08 2.5974132e+08    8290.6294    271.73068    1.2444125        15830 
   15840    4211.5784 2.5972882e+08 2.5974132e+08    8289.0479    270.66229    1.2450583        15840 
   15850    4206.4254 2.5972883e+08 2.5974132e+08    8287.4742    269.44283    1.2457058        15850 
   15860    4201.3153 2.5972883e+08 2.5974132e+08    8285.9062    268.10886    1.2463555        15860 
   15870    4195.5182 2.5972884e+08 2.5974132e+08     8284.351    266.84794    1.2470042        15870 
   15880    4189.1669 2.5972885e+08 2.5974132e+08     8282.818    265.68338    1.2476474        15880 
   15890    4182.6699 2.5972886e+08 2.5974132e+08    8281.3043    264.55686    1.2482858        15890 
   15900     4176.464 2.5972886e+08 2.5974132e+08    8279.8053    263.44736    1.2489211        15900 
   15910    4170.9834 2.5972887e+08 2.5974132e+08     8278.323    262.27773    1.2495517        15910 
   15920    4166.3121 2.5972888e+08 2.5974132e+08    8276.8571    260.99966    1.2501775        15920 
   15930    4162.0099 2.5972888e+08 2.5974132e+08    8275.4071    259.65949    1.2507982        15930 
   15940    4157.6207 2.5972889e+08 2.5974132e+08    8273.9719     258.3539    1.2514142        15940 
   15950    4153.1056 2.597289e+08 2.5974132e+08    8272.5484    257.10728    1.2520264        15950 
   15960    4148.7456 2.597289e+08 2.5974132e+08    8271.1323    255.87624    1.2526365        15960 
   15970     4144.716 2.5972891e+08 2.5974132e+08    8269.7187     254.6611    1.2532464        15970 
   15980    4141.1189 2.5972891e+08 2.5974132e+08    8268.3026    253.41932    1.2538579        15980 
   15990     4137.877 2.5972892e+08 2.5974132e+08    8266.8791    252.12643    1.2544729        15990 
   16000    4134.6217 2.5972892e+08 2.5974132e+08    8265.4442    251.26694    1.2550926        16000 
   16010    4130.8308 2.5972893e+08 2.5974132e+08    8263.9944    249.88737    1.2557183        16010 
   16020    4126.9739 2.5972893e+08 2.5974132e+08    8262.5271    248.49143    1.2563509        16020 
   16030    4123.2476 2.5972894e+08 2.5974132e+08    8261.0412    247.06348    1.2569903        16030 
   16040    4119.6757 2.5972894e+08 2.5974132e+08    8259.5363     245.5612    1.2576363        16040 
   16050    4116.1701 2.5972895e+08 2.5974132e+08    8258.0129    244.03853    1.2582882        16050 
   16060    4112.6582 2.5972895e+08 2.5974132e+08    8256.4765    242.53162    1.2589432        16060 
   16070    4109.1109 2.5972896e+08 2.5974132e+08    8254.9275    241.05606     1.259601        16070 
   16080     4105.526 2.5972896e+08 2.5974132e+08    8253.3755    239.66279    1.2602573        16080 
   16090    4101.9221 2.5972897e+08 2.5974132e+08    8251.8193    238.35162    1.2609123        16090 
   16100    4098.3099 2.5972897e+08 2.5974132e+08    8250.2565    237.10846    1.2615671        16100 
   16110    4094.6757 2.5972898e+08 2.5974132e+08    8248.6879    235.96024    1.2622211        16110 
   16120    4090.9399 2.5972898e+08 2.5974132e+08    8247.1139     234.8873    1.2628741        16120 
   16130    4087.0864 2.5972899e+08 2.5974132e+08    8245.5317    233.86755    1.2635271        16130 
   16140    4083.1316 2.5972899e+08 2.5974132e+08    8243.9381    232.90057    1.2641813        16140 
   16150    4079.0625  2.59729e+08 2.5974132e+08    8242.3303    231.97556    1.2648376        16150 
   16160     4074.907 2.5972901e+08 2.5974132e+08    8240.7043    231.08398    1.2654975        16160 
   16170    4070.7227 2.5972901e+08 2.5974132e+08    8239.0556    230.23307    1.2661623        16170 
   16180    4066.4663 2.5972902e+08 2.5974132e+08    8237.3808    229.41931    1.2668333        16180 
   16190    4062.1282 2.5972902e+08 2.5974132e+08     8235.684    228.65283    1.2675085        16190 
   16200    4057.7618 2.5972903e+08 2.5974132e+08    8233.9686    227.92067    1.2681863        16200 
   16210    4053.3811 2.5972904e+08 2.5974132e+08    8232.2359    227.22984    1.2688662        16210 
   16220    4049.0155 2.5972904e+08 2.5974132e+08    8230.4899    226.56012    1.2695463        16220 
   16230    4044.7752 2.5972905e+08 2.5974132e+08    8228.7503    225.92251    1.2702191        16230 
   16240    4040.6856 2.5972905e+08 2.5974132e+08    8227.0446    225.29899     1.270874        16240 
   16250    4036.5914 2.5972906e+08 2.5974132e+08    8225.3593    224.70231    1.2715164        16250 
   16260    4032.3485 2.5972906e+08 2.5974132e+08    8223.6834    224.13244    1.2721508        16260 
   16270     4027.934 2.5972907e+08 2.5974132e+08    8222.0061    223.57732    1.2727813        16270 
   16280     4023.455 2.5972908e+08 2.5974132e+08    8220.3183    223.00629    1.2734114        16280 
   16290     4018.964 2.5972908e+08 2.5974132e+08    8218.6116    222.45621    1.2740439        16290 
   16300    4014.4187 2.5972909e+08 2.5974132e+08    8216.8804     221.9187     1.274681        16300 
   16310    4009.8097 2.597291e+08 2.5974132e+08    8215.1241    221.39685    1.2753227        16310 
   16320    4005.1805 2.597291e+08 2.5974132e+08    8213.3466    220.91522    1.2759675        16320 
   16330    4000.4694 2.5972911e+08 2.5974132e+08    8211.5548    220.49512     1.276613        16330 
   16340    3995.7002 2.5972912e+08 2.5974132e+08    8209.7556    220.13542    1.2772566        16340 
   16350    3991.0985 2.5972912e+08 2.5974132e+08     8207.954     219.8092    1.2778968        16350 
   16360    3986.7189 2.5972913e+08 2.5974132e+08    8206.1517    219.50878     1.278533        16360 
   16370    3982.3718 2.5972913e+08 2.5974132e+08    8204.3483    219.25128    1.2791655        16370 
   16380     3978.052 2.5972914e+08 2.5974132e+08    8202.5416    219.02192    1.2797951        16380 
   16390    3973.7638 2.5972915e+08 2.5974132e+08    8200.7284    218.83829    1.2804229        16390 
   16400    3969.3604 2.5972915e+08 2.5974132e+08    8198.9063     218.6791    1.2810497        16400 
   16410    3964.7957 2.5972916e+08 2.5974132e+08    8197.0745    218.54144    1.2816758        16410 
   16420    3960.0188 2.5972917e+08 2.5974132e+08     8195.232    218.44304    1.2823015        16420 
   16430    3955.0431 2.5972917e+08 2.5974132e+08    8193.3776    218.38375     1.282927        16430 
   16440     3950.105 2.5972918e+08 2.5974132e+08    8191.5098    218.31084    1.2835528        16440 
   16450    3945.2449 2.5972919e+08 2.5974132e+08    8189.6269    218.26654    1.2841796        16450 
   16460    3940.4039 2.5972919e+08 2.5974132e+08    8187.7266    218.24766    1.2848079        16460 
   16470    3935.6086 2.597292e+08 2.5974132e+08    8185.8069    218.23452    1.2854385        16470 
   16480    3930.9113 2.5972921e+08 2.5974132e+08    8183.8755    218.20654    1.2860686        16480 
   16490    3926.2203 2.5972921e+08 2.5974132e+08    8181.9351    218.18095    1.2866977        16490 
   16500    3921.5787 2.5972922e+08 2.5974132e+08    8179.9919    218.12425    1.2873238        16500 
   16510    3916.8827 2.5972923e+08 2.5974132e+08    8178.0433    218.06345    1.2879477        16510 
   16520    3911.9989 2.5972923e+08 2.5974132e+08    8176.0848    218.00749    1.2885708        16520 
   16530    3906.9576 2.5972924e+08 2.5974132e+08     8174.115    217.97715    1.2891938        16530 
   16540    3901.8603 2.5972925e+08 2.5974132e+08    8172.1332    217.98308    1.2898169        16540 
   16550    3896.7782 2.5972925e+08 2.5974132e+08    8170.1403    218.02384    1.2904399        16550 
   16560    3891.7803 2.5972926e+08 2.5974132e+08    8168.1409    218.10118    1.2910614        16560 
   16570    3886.9179 2.5972927e+08 2.5974132e+08    8166.1399    218.19172    1.2916801        16570 
   16580    3882.0948 2.5972927e+08 2.5974132e+08    8164.1399    218.29935    1.2922953        16580 
   16590    3877.2597 2.5972928e+08 2.5974132e+08    8162.1403     218.4376    1.2929072        16590 
   16600    3872.4302 2.5972929e+08 2.5974132e+08    8160.1429    218.59539    1.2935155        16600 
   16610    3867.5702 2.597293e+08 2.5974132e+08    8158.1415     218.7663    1.2941222        16610 
   16620    3862.6543 2.597293e+08 2.5974132e+08    8156.1259    218.96104    1.2947304        16620 
   16630    3857.6844 2.5972931e+08 2.5974132e+08    8154.0911    219.14085    1.2953417        16630 
   16640     3852.758 2.5972932e+08 2.5974132e+08    8152.0384     219.3122    1.2959556        16640 
   16650    3847.9357 2.5972932e+08 2.5974132e+08    8149.9662    219.51071    1.2965728        16650 
   16660    3843.1974 2.5972933e+08 2.5974132e+08    8147.8742    219.75078    1.2971933        16660 
   16670    3838.5213 2.5972934e+08 2.5974132e+08    8145.7634    220.05327    1.2978168        16670 
   16680    3833.8904 2.5972934e+08 2.5974132e+08    8143.6353    220.41789    1.2984428        16680 
   16690    3829.2312 2.5972935e+08 2.5974132e+08     8141.491    220.83986    1.2990712        16690 
   16700    3824.5505 2.5972936e+08 2.5974132e+08    8139.3309    221.27971    1.2997017        16700 
   16710    3819.8709 2.5972936e+08 2.5974132e+08    8137.1548    221.73726    1.3003343        16710 
   16720     3815.178 2.5972937e+08 2.5974132e+08    8134.9625    222.21692    1.3009691        16720 
   16730     3810.548 2.5972938e+08 2.5974132e+08    8132.7587    222.67868    1.3016049        16730 
   16740    3805.9876 2.5972938e+08 2.5974132e+08    8130.5518    223.14646    1.3022392        16740 
   16750    3801.4565 2.5972939e+08 2.5974132e+08    8128.3413    223.61666    1.3028721        16750 
   16760     3796.927 2.597294e+08 2.5974132e+08    8126.1255    224.08991    1.3035044        16760 
   16770     3792.272 2.597294e+08 2.5974132e+08    8123.9024     224.5631    1.3041366        16770 
   16780    3787.5336 2.5972941e+08 2.5974132e+08     8121.671    225.05189     1.304769        16780 
   16790    3782.8028 2.5972942e+08 2.5974132e+08    8119.4325    225.57418    1.3054014        16790 
   16800    3778.1319 2.5972943e+08 2.5974132e+08    8117.1946    226.09346    1.3060317        16800 
   16810    3773.4431 2.5972943e+08 2.5974132e+08    8114.9719    226.61173    1.3066559        16810 
   16820    3768.7163 2.5972944e+08 2.5974132e+08    8112.7625    227.12018    1.3072746        16820 
   16830    3763.9359 2.5972945e+08 2.5974132e+08    8110.5595    227.62981    1.3078901        16830 
   16840    3759.0987 2.5972945e+08 2.5974132e+08    8108.3524    228.14821    1.3085053        16840 
   16850    3754.3801 2.5972946e+08 2.5974132e+08      8106.13    228.66272    1.3091235        16850 
   16860    3749.6937 2.5972947e+08 2.5974132e+08    8103.8828    229.22078    1.3097473        16860 
   16870     3744.932 2.5972947e+08 2.5974132e+08    8101.6036    229.79511    1.3103789        16870 
   16880    3740.3155 2.5972948e+08 2.5974132e+08    8099.3082    230.37926     1.311014        16880 
   16890    3735.9577 2.5972949e+08 2.5974132e+08    8097.0252    230.95762    1.3116448        16890 
   16900    3731.7874 2.5972949e+08 2.5974132e+08    8094.7772    231.51699    1.3122651        16900 
   16910    3727.8428 2.597295e+08 2.5974132e+08    8092.5795    232.06122    1.3128708        16910 
   16920    3724.0061 2.5972951e+08 2.5974132e+08    8090.4215    232.62063    1.3134649        16920 
   16930    3720.1621 2.5972951e+08 2.5974132e+08    8088.2867    233.18894    1.3140521        16930 
   16940    3716.3235 2.5972952e+08 2.5974132e+08    8086.1597    233.77935    1.3146364        16940 
   16950      3712.36 2.5972952e+08 2.5974132e+08    8084.0287    234.41745    1.3152212        16950 
   16960    3708.2335 2.5972953e+08 2.5974132e+08    8081.8813    235.08817    1.3158099        16960 
   16970    3704.0624 2.5972954e+08 2.5974132e+08    8079.7093    235.78496    1.3164048        16970 
   16980     3699.858 2.5972954e+08 2.5974132e+08    8077.5062    236.51668    1.3170077        16980 
   16990     3695.622 2.5972955e+08 2.5974132e+08     8075.267    237.29654      1.31762        16990 
   17000    3691.3408 2.5972956e+08 2.5974132e+08    8072.9889    237.79082    1.3182424        17000 
   17010    3687.1106 2.5972956e+08 2.5974132e+08     8070.669    238.68464    1.3188759        17010 
   17020    3682.7226 2.5972957e+08 2.5974132e+08    8068.3227    239.59837    1.3195163        17020 
   17030    3678.2887 2.5972958e+08 2.5974132e+08    8065.9959     240.4986    1.3201512        17030 
   17040    3673.8501 2.5972958e+08 2.5974132e+08    8063.7124     241.3917    1.3207744        17040 
   17050    3669.3826 2.5972959e+08 2.5974132e+08    8061.4605    242.28211    1.3213891        17050 
   17060    3664.8189 2.597296e+08 2.5974132e+08    8059.2324    243.19074    1.3219976        17060 
   17070    3660.1594 2.597296e+08 2.5974132e+08    8057.0178    244.10758    1.3226029        17070 
   17080    3655.4939 2.5972961e+08 2.5974132e+08    8054.8073    245.03745    1.3232078        17080 
   17090    3650.8719 2.5972962e+08 2.5974132e+08    8052.5917    245.95715     1.323815        17090 
   17100    3646.2004 2.5972962e+08 2.5974132e+08    8050.3643    246.88519    1.3244264        17100 
   17110    3641.4399 2.5972963e+08 2.5974132e+08    8048.1156    247.82268    1.3250448        17110 
   17120    3636.5913 2.5972964e+08 2.5974132e+08    8045.8351    248.80211    1.3256733        17120 
   17130    3631.5724 2.5972965e+08 2.5974132e+08    8043.5218    249.81188    1.3263124        17130 
   17140    3626.4258 2.5972965e+08 2.5974132e+08    8041.1943    250.86139    1.3269573        17140 
   17150    3621.3914 2.5972966e+08 2.5974132e+08    8038.9224    251.91733    1.3275886        17150 
   17160    3616.4211 2.5972967e+08 2.5974132e+08    8036.6998    252.99092    1.3282081        17160 
   17170    3611.5092 2.5972967e+08 2.5974132e+08    8034.5081    254.05895     1.328821        17170 
   17180    3606.6693 2.5972968e+08 2.5974132e+08    8032.3292    255.11792    1.3294324        17180 
   17190    3601.9677 2.5972969e+08 2.5974132e+08     8030.144    256.17647    1.3300477        17190 
   17200    3597.4987 2.597297e+08 2.5974132e+08    8027.9393    257.23975     1.330671        17200 
   17210    3593.1887 2.597297e+08 2.5974132e+08    8025.7027    258.30759    1.3313059        17210 
   17220    3589.0171 2.5972971e+08 2.5974132e+08    8023.4198    259.37778    1.3319567        17220 
   17230    3585.1055 2.5972971e+08 2.5974132e+08     8021.169     260.3957    1.3326013        17230 
   17240    3581.3941 2.5972972e+08 2.5974132e+08    8018.9923    261.33119    1.3332275        17240 
   17250    3577.7587 2.5972973e+08 2.5974132e+08    8016.8615    262.20087    1.3338432        17250 
   17260    3574.1149 2.5972973e+08 2.5974132e+08    8014.7475    263.01829    1.3344567        17260 
   17270    3570.3872 2.5972974e+08 2.5974132e+08    8012.6214    263.81426    1.3350763        17270 
   17280    3566.5518 2.5972974e+08 2.5974132e+08    8010.4602    264.61819    1.3357087        17280 
   17290    3562.5926 2.5972975e+08 2.5974132e+08    8008.2483    265.44193    1.3363586        17290 
   17300     3558.609 2.5972976e+08 2.5974132e+08    8006.0062    266.26833      1.33702        17300 
   17310    3554.7331 2.5972976e+08 2.5974132e+08    8003.7657     267.0867    1.3376835        17310 
   17320    3550.9813 2.5972977e+08 2.5974132e+08    8001.5225     267.9083    1.3383505        17320 
   17330    3547.3256 2.5972977e+08 2.5974132e+08    7999.2793    268.70658    1.3390201        17330 
   17340    3543.7046 2.5972978e+08 2.5974132e+08    7997.0402    269.48232    1.3396912        17340 
   17350    3540.0521 2.5972979e+08 2.5974132e+08     7994.805    270.24213    1.3403639        17350 
   17360    3536.3168 2.5972979e+08 2.5974132e+08    7992.5733    271.00865    1.3410382        17360 
   17370    3532.4679 2.597298e+08 2.5974132e+08    7990.3451    271.78896    1.3417144        17370 
   17380    3528.5322 2.597298e+08 2.5974132e+08    7988.1203    272.58642    1.3423924        17380 
   17390    3524.5701 2.5972981e+08 2.5974132e+08    7985.8989    273.38496    1.3430724        17390 
   17400    3520.5791 2.5972982e+08 2.5974132e+08     7983.681    274.19965    1.3437546        17400 
   17410    3516.4922 2.5972982e+08 2.5974132e+08    7981.4666    275.05458    1.3444389        17410 
   17420    3512.3025 2.5972983e+08 2.5974132e+08    7979.2599    275.90901    1.3451244        17420 
   17430    3508.0915 2.5972984e+08 2.5974132e+08     7977.073    276.74392    1.3458073        17430 
   17440    3503.8784 2.5972984e+08 2.5974132e+08    7974.9028    277.56829    1.3464889        17440 
   17450    3499.6365 2.5972985e+08 2.5974132e+08    7972.7462     278.3973    1.3471702        17450 
   17460    3495.3615 2.5972985e+08 2.5974132e+08    7970.6016      279.216    1.3478519        17460 
   17470    3491.0434 2.5972986e+08 2.5974132e+08    7968.4694    280.01391    1.3485341        17470 
   17480    3486.6472 2.5972987e+08 2.5974132e+08     7966.351    280.81019    1.3492164        17480 
   17490    3482.1614 2.5972987e+08 2.5974132e+08    7964.2493    281.59796    1.3498981        17490 
   17500    3477.6056 2.5972988e+08 2.5974132e+08     7962.167    282.36566    1.3505784        17500 
   17510    3473.0263 2.5972989e+08 2.5974132e+08    7960.1071    283.11606    1.3512567        17510 
   17520    3468.4214 2.5972989e+08 2.5974132e+08    7958.0722     283.8484     1.351932        17520 
   17530    3463.7617 2.597299e+08 2.5974132e+08    7956.0642     284.5668    1.3526038        17530 
   17540    3459.0243 2.5972991e+08 2.5974132e+08    7954.0837    285.26637    1.3532722        17540 
   17550    3454.2012 2.5972991e+08 2.5974132e+08    7952.1303    285.97247    1.3539372        17550 
   17560     3449.268 2.5972992e+08 2.5974132e+08    7950.2025    286.68442    1.3545995        17560 
   17570    3444.2242 2.5972993e+08 2.5974132e+08    7948.2979    287.39085      1.35526        17570 
   17580    3439.0997 2.5972994e+08 2.5974132e+08    7946.4147     288.0964    1.3559197        17580 
   17590    3433.9268 2.5972994e+08 2.5974132e+08    7944.5515    288.82399    1.3565791        17590 
   17600    3428.6991 2.5972995e+08 2.5974132e+08    7942.7078    289.56476    1.3572385        17600 
   17610    3423.4377 2.5972996e+08 2.5974132e+08    7940.8827    290.32232    1.3578986        17610 
   17620    3418.1927 2.5972996e+08 2.5974132e+08    7939.0755    291.08041    1.3585597        17620 
   17630    3412.9655 2.5972997e+08 2.5974132e+08    7937.2855    291.83834    1.3592223        17630 
   17640    3407.6865 2.5972998e+08 2.5974132e+08    7935.5131    292.61961    1.3598865        17640 
   17650    3402.3448 2.5972998e+08 2.5974132e+08    7933.7645    293.41804    1.3605499        17650 
   17660    3396.9517 2.5972999e+08 2.5974132e+08    7932.0405    294.22137    1.3612125        17660 
   17670    3391.5256   2.5973e+08 2.5974132e+08    7930.3407    295.02761    1.3618745        17670 
   17680    3386.0542 2.5973001e+08 2.5974132e+08    7928.6655    295.83317     1.362536        17680 
   17690    3380.5651 2.5973001e+08 2.5974132e+08    7927.0151      296.632    1.3631971        17690 
   17700    3375.0573 2.5973002e+08 2.5974132e+08    7925.3892    297.43414     1.363858        17700 
   17710    3369.4946 2.5973003e+08 2.5974132e+08    7923.7874    298.21976     1.364519        17710 
   17720    3363.8429 2.5973003e+08 2.5974132e+08     7922.209    299.00686    1.3651807        17720 
   17730     3358.136 2.5973004e+08 2.5974132e+08    7920.6535    299.79309    1.3658434        17730 
   17740    3352.4162 2.5973005e+08 2.5974132e+08    7919.1219    300.56571    1.3665071        17740 
   17750      3346.66 2.5973006e+08 2.5974132e+08    7917.6148    301.33309    1.3671717        17750 
   17760    3340.8398 2.5973006e+08 2.5974132e+08    7916.1329    302.09322    1.3678371        17760 
   17770    3334.9816 2.5973007e+08 2.5974132e+08    7914.6774    302.85744    1.3685031        17770 
   17780    3329.1339 2.5973008e+08 2.5974132e+08    7913.2491    303.61122    1.3691695        17780 
   17790    3323.3017 2.5973009e+08 2.5974132e+08    7911.8485    304.35602    1.3698364        17790 
   17800    3317.4571 2.5973009e+08 2.5974132e+08     7910.476    305.09863    1.3705038        17800 
   17810    3311.5868 2.597301e+08 2.5974132e+08    7909.1322    305.83205    1.3711717        17810 
   17820    3305.7092 2.5973011e+08 2.5974132e+08    7907.8178    306.54822    1.3718401        17820 
   17830    3299.8387 2.5973011e+08 2.5974132e+08    7906.5335    307.26271    1.3725088        17830 
   17840    3293.9648 2.5973012e+08 2.5974132e+08    7905.2819    307.96618    1.3731767        17840 
   17850    3288.0818 2.5973013e+08 2.5974132e+08    7904.0633    308.65947    1.3738438        17850 
   17860    3282.1624 2.5973014e+08 2.5974132e+08    7902.8779    309.34605    1.3745102        17860 
   17870    3276.1699 2.5973014e+08 2.5974132e+08    7901.7257    310.02796    1.3751759        17870 
   17880    3270.0998 2.5973015e+08 2.5974132e+08    7900.6069    310.71234    1.3758412        17880 
   17890    3263.9932 2.5973016e+08 2.5974132e+08    7899.5218    311.39148    1.3765061        17890 
   17900    3257.8783 2.5973016e+08 2.5974132e+08    7898.4704    312.04447    1.3771707        17900 
   17910     3251.748 2.5973017e+08 2.5974132e+08    7897.4529    312.68098    1.3778352        17910 
   17920    3245.6019 2.5973018e+08 2.5974132e+08    7896.4693    313.30469    1.3784997        17920 
   17930    3239.4543 2.5973019e+08 2.5974132e+08    7895.5198    313.91572    1.3791643        17930 
   17940     3233.316 2.5973019e+08 2.5974132e+08    7894.6047    314.50602     1.379829        17940 
   17950    3227.1981 2.597302e+08 2.5974132e+08    7893.7241    315.07668    1.3804941        17950 
   17960    3221.0947 2.5973021e+08 2.5974132e+08    7892.8784    315.62281    1.3811594        17960 
   17970    3214.9976 2.5973021e+08 2.5974132e+08    7892.0676    316.13629    1.3818251        17970 
   17980    3208.9045 2.5973022e+08 2.5974132e+08    7891.2921    316.61421    1.3824911        17980 
   17990    3202.8119 2.5973023e+08 2.5974132e+08    7890.5525    317.05886    1.3831572        17990 
   18000    3196.9194 2.5973023e+08 2.5974132e+08     7889.849    309.73956    1.3838233        18000 
   18010     3194.953 2.5973024e+08 2.5974132e+08    7889.1807    310.42509    1.3844895        18010 
   18020    3192.9158 2.5973024e+08 2.5974132e+08    7888.5467    311.07486    1.3851557        18020 
   18030    3190.7083 2.5973024e+08 2.5974132e+08    7887.9472    311.67045     1.385822        18030 
   18040    3188.2905 2.5973025e+08 2.5974132e+08    7887.3829    312.19542    1.3864879        18040 
   18050     3185.688 2.5973025e+08 2.5974132e+08     7886.854    312.65051    1.3871537        18050 
   18060    3182.9655 2.5973025e+08 2.5974132e+08     7886.361    313.04107    1.3878194        18060 
   18070    3180.1893 2.5973025e+08 2.5974132e+08    7885.9041    313.37593    1.3884852        18070 
   18080    3177.4295 2.5973026e+08 2.5974132e+08     7885.484    313.65158    1.3891511        18080 
   18090    3174.7207 2.5973026e+08 2.5974132e+08    7885.1011    313.88305    1.3898174        18090 
   18100    3172.0361 2.5973026e+08 2.5974132e+08    7884.7562    314.08887    1.3904839        18100 
   18110     3169.301 2.5973027e+08 2.5974132e+08    7884.4498    314.28431    1.3911508        18110 
   18120     3166.464 2.5973027e+08 2.5974132e+08    7884.1827    314.47763    1.3918177        18120 
   18130    3163.5029 2.5973027e+08 2.5974132e+08    7883.9555    314.67602    1.3924844        18130 
   18140    3160.4338 2.5973028e+08 2.5974132e+08    7883.7687    314.86722    1.3931511        18140 
   18150    3157.3127 2.5973028e+08 2.5974132e+08    7883.6225    315.04016    1.3938175        18150 
   18160    3154.1742 2.5973028e+08 2.5974132e+08    7883.5172    315.18882    1.3944838        18160 
   18170    3151.0185 2.5973029e+08 2.5974132e+08     7883.453    315.30181    1.3951499        18170 
   18180    3147.8459 2.5973029e+08 2.5974132e+08    7883.4297    315.38044    1.3958159        18180 
   18190    3144.6899 2.5973029e+08 2.5974132e+08    7883.4474    315.41969    1.3964818        18190 
   18200    3141.6127 2.597303e+08 2.5974132e+08    7883.5059    315.40862    1.3971476        18200 
   18210    3138.6725 2.597303e+08 2.5974132e+08    7883.6051    315.33297    1.3978134        18210 
   18220    3135.8793 2.597303e+08 2.5974132e+08    7883.7447    315.17837    1.3984793        18220 
   18230    3133.2284 2.597303e+08 2.5974132e+08    7883.9246    314.94009    1.3991453        18230 
   18240    3130.7389 2.5973031e+08 2.5974132e+08    7884.1442    314.61787    1.3998116        18240 
   18250     3128.459 2.5973031e+08 2.5974132e+08    7884.4036    314.20607    1.4004783        18250 
   18260    3126.3871 2.5973031e+08 2.5974132e+08    7884.7023    313.70115    1.4011455        18260 
   18270    3124.4679 2.5973031e+08 2.5974132e+08    7885.0402    313.09904    1.4018135        18270 
   18280    3122.6274 2.5973031e+08 2.5974132e+08    7885.4169    312.41064    1.4024825        18280 
   18290    3120.9013 2.5973031e+08 2.5974132e+08    7885.8319    311.63857    1.4031527        18290 
   18300    3119.3907 2.5973032e+08 2.5974132e+08     7886.285    310.79332    1.4038243        18300 
   18310    3118.1399 2.5973032e+08 2.5974132e+08    7886.7757    309.87275    1.4044975        18310 
   18320    3117.1049 2.5973032e+08 2.5974132e+08    7887.3027    308.87863    1.4051713        18320 
   18330    3116.1988 2.5973032e+08 2.5974132e+08    7887.8647    307.80935    1.4058453        18330 
   18340    3115.3017 2.5973032e+08 2.5974132e+08    7888.4609    306.67855    1.4065197        18340 
   18350    3114.2531 2.5973032e+08 2.5974132e+08    7889.0897     305.5082    1.4071938        18350 
   18360    3112.9603 2.5973032e+08 2.5974132e+08    7889.7499    304.31124    1.4078676        18360 
   18370    3111.6617 2.5973032e+08 2.5974132e+08    7890.4406      303.064    1.4085416        18370 
   18380    3110.8556 2.5973032e+08 2.5974132e+08    7891.1615    301.70866    1.4092165        18380 
   18390    3110.5206 2.5973032e+08 2.5974132e+08    7891.9124    300.24911    1.4098932        18390 
   18400    3110.1797 2.5973032e+08 2.5974132e+08    7892.6914    298.74054     1.410571        18400 
   18410     3109.643 2.5973032e+08 2.5974132e+08    7893.4971    297.19813    1.4112496        18410 
   18420    3109.0237 2.5973032e+08 2.5974132e+08    7894.3311    295.59644    1.4119313        18420 
   18430    3108.4693 2.5973032e+08 2.5974132e+08    7895.1976    293.91689    1.4126202        18430 
   18440    3108.0231 2.5973032e+08 2.5974132e+08    7896.1023    292.15152    1.4133209        18440 
   18450    3107.6824 2.5973032e+08 2.5974132e+08    7897.0444    290.30662    1.4140331        18450 
   18460    3107.4069 2.5973032e+08 2.5974132e+08    7898.0192    288.40227    1.4147534        18460 
   18470    3107.0746 2.5973031e+08 2.5974132e+08    7899.0051    286.50421    1.4154667        18470 
   18480    3106.5721 2.5973031e+08 2.5974132e+08    7899.9973    284.64286    1.4161711        18480 
   18490    3105.9188 2.5973031e+08 2.5974132e+08    7900.9962    282.82494    1.4168679        18490 
   18500    3105.2387 2.5973031e+08 2.5974132e+08     7902.005    281.02468    1.4175608        18500 
   18510    3104.5719 2.5973031e+08 2.5974132e+08    7903.0319    279.20003    1.4182563        18510 
   18520    3103.8536 2.5973031e+08 2.5974132e+08    7904.0927    277.29039    1.4189654        18520 
   18530    3103.0101 2.5973031e+08 2.5974132e+08     7905.211    275.22256    1.4197043        18530 
   18540    3102.1542 2.5973031e+08 2.5974132e+08    7906.3907    272.95377    1.4204752        18540 
   18550    3101.4708 2.5973031e+08 2.5974132e+08    7907.6274    270.46284    1.4212755        18550 
   18560    3100.9153 2.5973031e+08 2.5974132e+08    7908.8905    267.83148    1.4220857        18560 
   18570    3100.2042 2.5973031e+08 2.5974132e+08    7910.1662    265.16107    1.4228981        18570 
   18580    3099.2358 2.5973031e+08 2.5974132e+08    7911.4578    262.50924    1.4237157        18580 
   18590    3098.1586 2.5973031e+08 2.5974132e+08    7912.7684    259.87987    1.4245416        18590 
   18600    3097.0882 2.5973031e+08 2.5974132e+08     7914.101    257.25972    1.4253784        18600 
   18610    3095.9635 2.5973031e+08 2.5974132e+08     7915.452    254.64221    1.4262251        18610 
   18620     3094.713 2.5973031e+08 2.5974132e+08    7916.8091    252.03329     1.427075        18620 
   18630    3093.3389 2.5973031e+08 2.5974132e+08     7918.172    249.44518    1.4279291        18630 
   18640    3091.9079 2.5973031e+08 2.5974132e+08     7919.545    246.87561    1.4287917        18640 
   18650    3090.4645 2.5973031e+08 2.5974132e+08    7920.9305    244.33912    1.4296655        18650 
   18660    3088.9735 2.5973031e+08 2.5974132e+08    7922.3129    241.87307    1.4305424        18660 
   18670    3087.4172 2.5973031e+08 2.5974132e+08    7923.6836    239.48267    1.4314183        18670 
   18680     3085.806 2.5973031e+08 2.5974132e+08    7925.0321    237.16259    1.4322876        18680 
   18690    3084.0967 2.5973031e+08 2.5974132e+08    7926.3527    234.92116     1.433148        18690 
   18700    3082.2313 2.5973031e+08 2.5974132e+08    7927.6604    232.74236    1.4340101        18700 
   18710    3080.2184 2.5973031e+08 2.5974132e+08    7928.9547    230.63203    1.4348749        18710 
   18720    3078.0669 2.5973031e+08 2.5974132e+08    7930.2372    228.58711     1.435745        18720 
   18730    3075.8159 2.5973031e+08 2.5974132e+08    7931.5112    226.59241    1.4366242        18730 
   18740    3073.5212 2.5973031e+08 2.5974132e+08    7932.7718    224.64009    1.4375113        18740 
   18750    3071.2284 2.5973032e+08 2.5974132e+08    7934.0045    222.73129    1.4383975        18750 
   18760    3068.8873 2.5973032e+08 2.5974132e+08    7935.2071    220.87756    1.4392829        18760 
   18770    3066.4784 2.5973032e+08 2.5974132e+08    7936.3782    219.10821    1.4401678        18770 
   18780    3064.0475 2.5973032e+08 2.5974132e+08    7937.5163    217.44896    1.4410523        18780 
   18790    3061.6068 2.5973032e+08 2.5974132e+08    7938.6203    215.91277    1.4419367        18790 
   18800    3059.1466 2.5973032e+08 2.5974132e+08    7939.6889    214.50312    1.4428212        18800 
   18810    3056.6781 2.5973032e+08 2.5974132e+08    7940.7211    213.22285     1.443706        18810 
   18820    3054.1979 2.5973032e+08 2.5974132e+08     7941.716    212.05328    1.4445914        18820 
   18830    3051.6892 2.5973033e+08 2.5974132e+08    7942.6726    210.96422    1.4454775        18830 
   18840    3049.1617 2.5973033e+08 2.5974132e+08    7943.5902    209.92611    1.4463646        18840 
   18850    3046.5895 2.5973033e+08 2.5974132e+08    7944.4677    208.93855    1.4472528        18850 
   18860    3043.9192 2.5973033e+08 2.5974132e+08    7945.3041    208.00521    1.4481423        18860 
   18870    3041.1953 2.5973033e+08 2.5974132e+08    7946.0972    207.13198    1.4490321        18870 
   18880    3038.5026 2.5973034e+08 2.5974132e+08    7946.8428    206.32175    1.4499184        18880 
   18890    3035.7862 2.5973034e+08 2.5974132e+08    7947.5404    205.58216    1.4508012        18890 
   18900    3032.8635 2.5973034e+08 2.5974132e+08    7948.1896    204.93641    1.4516806        18900 
   18910    3029.6342 2.5973034e+08 2.5974132e+08    7948.7904      204.374    1.4525568        18910 
   18920    3026.5366 2.5973034e+08 2.5974132e+08    7949.3429    203.79564    1.4534301        18920 
   18930    3023.9059 2.5973035e+08 2.5974132e+08    7949.8472    203.11729    1.4543006        18930 
   18940    3021.1797 2.5973035e+08 2.5974132e+08    7950.3034    202.44478    1.4551686        18940 
   18950    3018.2633 2.5973035e+08 2.5974132e+08    7950.7116    201.84334    1.4560344        18950 
   18960    3015.4071 2.5973035e+08 2.5974132e+08    7951.0718    201.33536    1.4568981        18960 
   18970    3012.6396 2.5973036e+08 2.5974132e+08     7951.384    200.92262    1.4577599        18970 
   18980    3009.8445 2.5973036e+08 2.5974132e+08    7951.6485     200.5859    1.4586202        18980 
   18990    3007.1046 2.5973036e+08 2.5974132e+08    7951.8655    200.30133     1.459479        18990 
   19000    3004.6331 2.5973036e+08 2.5974132e+08    7952.0355    200.03194    1.4603368        19000 
   19010    3002.3649 2.5973037e+08 2.5974132e+08    7952.1589    199.77332    1.4611935        19010 
   19020    3000.0506 2.5973037e+08 2.5974132e+08    7952.2358    199.55335    1.4620496        19020 
   19030    2997.6152 2.5973037e+08 2.5974132e+08    7952.2666    199.37918    1.4629051        19030 
   19040    2995.0895 2.5973037e+08 2.5974132e+08    7952.2511    199.26313    1.4637604        19040 
   19050    2992.4051 2.5973038e+08 2.5974132e+08    7952.1894    199.21492    1.4646155        19050 
   19060    2989.3738 2.5973038e+08 2.5974132e+08    7952.0813    199.23282    1.4654707        19060 
   19070    2986.1943 2.5973038e+08 2.5974132e+08    7951.9268    199.28803    1.4663263        19070 
   19080    2983.5642 2.5973039e+08 2.5974132e+08    7951.7262    199.28667    1.4671822        19080 
   19090     2981.411 2.5973039e+08 2.5974132e+08    7951.4798     199.2207    1.4680389        19090 
   19100    2979.0915 2.5973039e+08 2.5974132e+08    7951.1879    199.18246    1.4688968        19100 
   19110    2976.5287 2.5973039e+08 2.5974132e+08    7950.8504     199.2344    1.4697579        19110 
   19120    2973.6071 2.597304e+08 2.5974132e+08    7950.4666    199.39485    1.4706246        19120 
   19130     2969.686 2.597304e+08 2.5974132e+08    7950.0329    199.71703    1.4715036        19130 
   19140     2965.206 2.5973041e+08 2.5974132e+08    7949.5637    200.10494    1.4723678        19140 
   19150     2962.445 2.5973041e+08 2.5974132e+08    7949.0669    200.29687    1.4732083        19150 
   19160    2960.1979 2.5973041e+08 2.5974132e+08    7948.5385    200.41075    1.4740366        19160 
   19170    2957.1484 2.5973042e+08 2.5974132e+08    7947.9698    200.59334    1.4748675        19170 
   19180    2953.9742 2.5973042e+08 2.5974132e+08    7947.3606    200.83023    1.4757003        19180 
   19190     2951.461 2.5973042e+08 2.5974132e+08    7946.7279    201.13344    1.4765137        19190 
   19200    2949.2049 2.5973043e+08 2.5974132e+08    7946.0593    201.50422    1.4773254        19200 
   19210    2946.5891 2.5973043e+08 2.5974132e+08    7945.3427    201.90056    1.4781491        19210 
   19220    2943.7935 2.5973043e+08 2.5974132e+08    7944.5738    202.26711     1.478988        19220 
   19230    2941.8304 2.5973044e+08 2.5974132e+08    7943.7759    202.52929    1.4798166        19230 
   19240    2940.4331 2.5973044e+08 2.5974132e+08     7942.951    202.72844    1.4806352        19240 
   19250    2938.7273 2.5973044e+08 2.5974132e+08    7942.0981    202.91684    1.4814464        19250 
   19260    2936.6088 2.5973044e+08 2.5974132e+08    7941.1991    203.16642     1.482268        19260 
   19270    2934.5316 2.5973045e+08 2.5974132e+08    7940.2709    203.48695    1.4830852        19270 
   19280    2932.5496 2.5973045e+08 2.5974132e+08    7939.3143    203.89018    1.4838984        19280 
   19290    2930.5363 2.5973045e+08 2.5974132e+08     7938.327    204.36001    1.4847108        19290 
   19300    2928.5893 2.5973045e+08 2.5974132e+08    7937.3132    204.85552    1.4855197        19300 
   19310    2926.8452 2.5973046e+08 2.5974132e+08    7936.2778    205.33563    1.4863222        19310 
   19320    2925.3246 2.5973046e+08 2.5974132e+08    7935.2195     205.8029    1.4871203        19320 
   19330    2923.8765 2.5973046e+08 2.5974132e+08    7934.1321    206.27346     1.487919        19330 
   19340     2922.392 2.5973047e+08 2.5974132e+08    7933.0128    206.77124    1.4887204        19340 
   19350    2920.8003 2.5973047e+08 2.5974132e+08    7931.8847      207.285    1.4895089        19350 
   19360    2919.1169 2.5973047e+08 2.5974132e+08    7930.7406    207.80683    1.4902908        19360 
   19370    2917.5039 2.5973047e+08 2.5974132e+08    7929.5684    208.30744    1.4910749        19370 
   19380    2916.0414 2.5973048e+08 2.5974132e+08    7928.3819    208.74976    1.4918529        19380 
   19390    2914.5132 2.5973048e+08 2.5974132e+08    7927.1882    209.14227    1.4926214        19390 
   19400    2912.6246 2.5973048e+08 2.5974132e+08    7925.9735    209.53084      1.49339        19400 
   19410    2910.3599 2.5973049e+08 2.5974132e+08    7924.7239    209.92126    1.4941682        19410 
   19420     2907.951 2.5973049e+08 2.5974132e+08    7923.4284    210.32791     1.494963        19420 
   19430    2905.6069 2.5973049e+08 2.5974132e+08    7922.0845    210.76548    1.4957763        19430 
   19440     2903.487 2.597305e+08 2.5974132e+08    7920.7716    211.23018    1.4965611        19440 
   19450     2901.532 2.597305e+08 2.5974132e+08    7919.4948    211.71651    1.4973163        19450 
   19460    2899.6503 2.597305e+08 2.5974132e+08    7918.2651    212.22951    1.4980373        19460 
   19470     2897.633 2.5973051e+08 2.5974132e+08    7917.0843    212.76783    1.4987246        19470 
   19480    2895.3267 2.5973051e+08 2.5974132e+08    7915.9257    213.34741    1.4993948        19480 
   19490    2892.7552 2.5973051e+08 2.5974132e+08    7914.7659    213.97742    1.5000622        19490 
   19500    2890.2245 2.5973052e+08 2.5974132e+08    7913.5852    214.60794    1.5007387        19500 
   19510    2888.1367 2.5973052e+08 2.5974132e+08    7912.4126    215.18154    1.5014083        19510 
   19520    2886.3598 2.5973052e+08 2.5974132e+08     7911.264    215.70741    1.5020623        19520 
   19530     2884.515 2.5973053e+08 2.5974132e+08    7910.1147    216.22745    1.5027151        19530 
   19540    2882.4482 2.5973053e+08 2.5974132e+08    7908.9487    216.77369    1.5033764        19540 
   19550    2880.2846 2.5973053e+08 2.5974132e+08    7907.7808     217.3233     1.504038        19550 
   19560    2878.1878 2.5973054e+08 2.5974132e+08    7906.6015    217.89661    1.5047057        19560 
   19570    2876.0074 2.5973054e+08 2.5974132e+08    7905.3889    218.53204    1.5053924        19570 
   19580    2873.4672 2.5973054e+08 2.5974132e+08     7904.124      219.274    1.5061092        19580 
   19590    2870.9036 2.5973055e+08 2.5974132e+08    7902.8345    220.06728    1.5068409        19590 
   19600    2869.0258 2.5973055e+08 2.5974132e+08    7901.6397    220.71874    1.5075202        19600 
   19610    2867.6413 2.5973055e+08 2.5974132e+08    7900.5586    221.23277    1.5081359        19610 
   19620    2866.3261 2.5973055e+08 2.5974132e+08     7899.544     221.6939    1.5087148        19620 
   19630    2864.9273 2.5973056e+08 2.5974132e+08      7898.55    222.15953    1.5092828        19630 
   19640    2863.5419 2.5973056e+08 2.5974132e+08    7897.5443     222.6824    1.5098582        19640 
   19650    2862.3176 2.5973056e+08 2.5974132e+08    7896.5111    223.26809    1.5104502        19650 
   19660    2861.2043 2.5973056e+08 2.5974132e+08    7895.4483    223.87983    1.5110601        19660 
   19670    2860.1396 2.5973057e+08 2.5974132e+08    7894.3575    224.50196    1.5116872        19670 
   19680    2859.1295 2.5973057e+08 2.5974132e+08     7893.234    225.11722    1.5123343        19680 
   19690    2858.1051 2.5973057e+08 2.5974132e+08    7892.0594    225.69627    1.5130124        19690 
   19700    2857.0472 2.5973057e+08 2.5974132e+08    7890.8615    226.23106    1.5137052        19700 
   19710    2856.0257 2.5973057e+08 2.5974132e+08    7889.7136    226.69128    1.5143701        19710 
   19720     2854.901 2.5973058e+08 2.5974132e+08     7888.591    227.11478    1.5150212        19720 
   19730    2853.5656 2.5973058e+08 2.5974132e+08    7887.4705     227.5273    1.5156714        19730 
   19740    2851.9826 2.5973058e+08 2.5974132e+08    7886.3343    227.95336    1.5163311        19740 
   19750    2850.2096 2.5973059e+08 2.5974132e+08    7885.1618    228.42463    1.5170121        19750 
   19760    2848.3888 2.5973059e+08 2.5974132e+08    7883.9301    228.96466    1.5177276        19760 
   19770    2846.6239 2.5973059e+08 2.5974132e+08    7882.6476    229.56041    1.5184728        19770 
   19780    2844.9958 2.5973059e+08 2.5974132e+08    7881.3004      230.223    1.5192561        19780 
   19790    2843.5666 2.597306e+08 2.5974132e+08    7879.9261    230.93212    1.5200556        19790 
   19800    2842.2846 2.597306e+08 2.5974132e+08    7878.5763    231.63228    1.5208418        19800 
   19810    2841.0564 2.597306e+08 2.5974132e+08    7877.2528    232.32287    1.5216138        19810 
   19820    2839.7923 2.597306e+08 2.5974132e+08     7875.954    233.00288    1.5223727        19820 
   19830    2838.4456 2.5973061e+08 2.5974132e+08     7874.667    233.67152    1.5231259        19830 
   19840    2837.0219 2.5973061e+08 2.5974132e+08    7873.3703    234.33757    1.5238863        19840 
   19850    2835.5324 2.5973061e+08 2.5974132e+08    7872.0422    235.01267    1.5246667        19850 
   19860    2833.9882 2.5973062e+08 2.5974132e+08    7870.6749    235.67506    1.5254719        19860 
   19870    2832.5054 2.5973062e+08 2.5974132e+08    7869.2778    236.28625    1.5262968        19870 
   19880    2831.0949 2.5973062e+08 2.5974132e+08    7867.8687    236.84102    1.5271308        19880 
   19890    2829.5719 2.5973062e+08 2.5974132e+08    7866.4617    237.38582     1.527966        19890 
   19900    2827.9991 2.5973063e+08 2.5974132e+08    7865.0604    237.94147    1.5288004        19900 
   19910    2826.5389 2.5973063e+08 2.5974132e+08    7863.6704    238.50756    1.5296308        19910 
   19920    2825.1524 2.5973063e+08 2.5974132e+08    7862.2804    239.08993    1.5304642        19920 
   19930    2823.7228 2.5973064e+08 2.5974132e+08    7860.8767    239.67965    1.5313091        19930 
   19940    2822.1988 2.5973064e+08 2.5974132e+08    7859.4665    240.25928    1.5321618        19940 
   19950     2820.627 2.5973064e+08 2.5974132e+08    7858.0595    240.80303    1.5330164        19950 
   19960    2819.0685 2.5973065e+08 2.5974132e+08    7856.6584    241.31007    1.5338721        19960 
   19970    2817.5184 2.5973065e+08 2.5974132e+08    7855.2478    241.78554    1.5347387        19970 
   19980    2816.0001 2.5973065e+08 2.5974132e+08    7853.8489    242.22029    1.5356043        19980 
   19990     2814.518 2.5973065e+08 2.5974132e+08    7852.4667    242.61979    1.5364662        19990 
   20000    2813.0531 2.5973066e+08 2.5974132e+08    7851.0872    243.00486     1.537334        20000 
   20010    2811.6749 2.5973066e+08 2.5974132e+08    7849.6962    243.38911    1.5382174        20010 
   20020    2810.5106 2.5973066e+08 2.5974132e+08    7848.3114     243.7685    1.5391055        20020 
   20030    2809.5348 2.5973066e+08 2.5974132e+08    7846.9362    244.14834     1.539996        20030 
   20040    2808.6162 2.5973067e+08 2.5974132e+08    7845.5695    244.52783    1.5408893        20040 
   20050    2807.6718 2.5973067e+08 2.5974132e+08    7844.2139    244.90059    1.5417831        20050 
   20060    2806.6866 2.5973067e+08 2.5974132e+08    7842.8663    245.27009     1.542679        20060 
   20070     2805.719 2.5973067e+08 2.5974132e+08     7841.525    245.64014    1.5435775        20070 
   20080    2804.8871 2.5973068e+08 2.5974132e+08    7840.1953    246.00193    1.5444747        20080 
   20090    2804.3092 2.5973068e+08 2.5974132e+08    7838.8763     246.3315    1.5453705        20090 
   20100    2803.9317 2.5973068e+08 2.5974132e+08    7837.5644    246.63147    1.5462668        20100 
   20110    2803.5022 2.5973068e+08 2.5974132e+08    7836.2557     246.9347    1.5471658        20110 
   20120     2802.576 2.5973068e+08 2.5974132e+08    7834.9472    247.36251    1.5480689        20120 
   20130     2799.912 2.5973069e+08 2.5974132e+08    7833.6383    248.20684    1.5489756        20130 
   20140    2794.7796 2.5973069e+08 2.5974132e+08    7832.3336     249.5842    1.5498821        20140 
   20150    2791.0178 2.597307e+08 2.5974132e+08    7831.0344    250.85524    1.5507861        20150 
   20160    2786.9122 2.597307e+08 2.5974132e+08     7829.733    252.22305    1.5516922        20160 
   20170    2777.9905 2.5973071e+08 2.5974132e+08    7828.4342    254.53182    1.5525955        20170 
   20180    2765.8313 2.5973073e+08 2.5974132e+08    7827.1826    257.50824    1.5534642        20180 
   20190    2762.3107 2.5973073e+08 2.5974132e+08    7826.0412    259.27691     1.554254        20190 
   20200    2758.0179 2.5973074e+08 2.5974132e+08    7824.9709    260.72586     1.554992        20200 
   20210     2751.794 2.5973075e+08 2.5974132e+08    7823.9165    262.35459    1.5557162        20210 
   20220    2747.0745 2.5973075e+08 2.5974132e+08    7822.8509    263.81636    1.5564449        20220 
   20230    2743.4533 2.5973076e+08 2.5974132e+08    7821.7936    264.90412    1.5571644        20230 
   20240    2740.3706 2.5973076e+08 2.5974132e+08    7820.7682    265.65278    1.5578585        20240 
   20250      2737.98 2.5973076e+08 2.5974132e+08     7819.771     266.0971      1.55853        20250 
   20260    2736.7011 2.5973077e+08 2.5974132e+08    7818.8441    266.28225    1.5591508        20260 
   20270    2735.7139 2.5973077e+08 2.5974132e+08    7817.9888    266.36327    1.5597207        20270 
   20280     2732.664 2.5973077e+08 2.5974132e+08    7817.1748    266.50251    1.5602604        20280 
   20290    2726.5376 2.5973078e+08 2.5974132e+08     7816.347    266.68884    1.5608067        20290 
   20300    2723.2245 2.5973078e+08 2.5974132e+08    7815.4776    266.44793    1.5613774        20300 
   20310    2725.4411 2.5973078e+08 2.5974132e+08    7814.6555    265.79668    1.5619144        20310 
   20320     2726.256 2.5973078e+08 2.5974132e+08    7813.9003    265.23541    1.5624054        20320 
   20330     2724.299 2.5973078e+08 2.5974132e+08    7813.1648    264.93337    1.5628814        20330 
   20340    2721.1049 2.5973079e+08 2.5974132e+08    7812.4201    264.82617    1.5633613        20340 
   20350    2718.0726 2.5973079e+08 2.5974132e+08    7811.6576    264.75238    1.5638506        20350 
   20360    2716.1778 2.5973079e+08 2.5974132e+08    7810.8773    264.58159    1.5643491        20360 
   20370    2715.5012 2.597308e+08 2.5974132e+08    7810.0815    264.27985    1.5648554        20370 
   20380    2715.0031 2.597308e+08 2.5974132e+08    7809.2737    263.90828    1.5653671        20380 
   20390     2713.688 2.597308e+08 2.5974132e+08    7808.4557    263.57577    1.5658832        20390 
   20400      2711.45 2.597308e+08 2.5974132e+08    7807.6239    263.31359    1.5664059        20400 
   20410    2708.8639 2.5973081e+08 2.5974132e+08    7806.7665    263.06532    1.5669427        20410 
   20420    2706.6918 2.5973081e+08 2.5974132e+08    7805.8688    262.72709    1.5675026        20420 
   20430    2704.9905 2.5973081e+08 2.5974132e+08    7804.9141    262.28405    1.5680959        20430 
   20440    2703.3149 2.5973081e+08 2.5974132e+08    7803.9358    261.85538    1.5687016        20440 
   20450    2701.4552 2.5973082e+08 2.5974132e+08    7802.9903     261.5101     1.569285        20450 
   20460    2699.2871 2.5973082e+08 2.5974132e+08    7802.0602    261.23336     1.569857        20460 
   20470    2696.8877 2.5973082e+08 2.5974132e+08    7801.1462    261.00075    1.5704173        20470 
   20480    2694.5648 2.5973083e+08 2.5974132e+08    7800.2647    260.80579    1.5709562        20480 
   20490    2692.4362 2.5973083e+08 2.5974132e+08    7799.3987    260.63768     1.571484        20490 
   20500    2690.4891 2.5973083e+08 2.5974132e+08    7798.5351    260.47774    1.5720089        20500 
   20510    2688.5355 2.5973083e+08 2.5974132e+08    7797.6633    260.31905    1.5725372        20510 
   20520    2686.4127 2.5973084e+08 2.5974132e+08    7796.7734     260.1549    1.5730751        20520 
   20530     2684.168 2.5973084e+08 2.5974132e+08    7795.8646    259.98992    1.5736228        20530 
   20540     2682.081 2.5973084e+08 2.5974132e+08    7794.9617    259.79965    1.5741654        20540 
   20550    2680.2747 2.5973085e+08 2.5974132e+08    7794.0578    259.56444    1.5747071        20550 
   20560     2678.571 2.5973085e+08 2.5974132e+08    7793.1484    259.32498    1.5752507        20560 
   20570    2676.6792 2.5973085e+08 2.5974132e+08     7792.231    259.14044    1.5757976        20570 
   20580    2674.4451 2.5973085e+08 2.5974132e+08    7791.3227    259.05673    1.5763378        20580 
   20590    2671.8927 2.5973086e+08 2.5974132e+08    7790.4262    259.05567    1.5768696        20590 
   20600    2669.1197 2.5973086e+08 2.5974132e+08     7789.531    259.08061    1.5773994        20600 
   20610    2666.2704 2.5973087e+08 2.5974132e+08     7788.627    259.10972    1.5779331        20610 
   20620    2663.4996 2.5973087e+08 2.5974132e+08     7787.705    259.11516    1.5784763        20620 
   20630    2660.9079 2.5973087e+08 2.5974132e+08    7786.7559    259.08817    1.5790342        20630 
   20640    2658.4959 2.5973088e+08 2.5974132e+08    7785.7792    259.05086    1.5796071        20640 
   20650     2656.269 2.5973088e+08 2.5974132e+08    7784.8078    259.02203    1.5801756        20650 
   20660    2654.1154 2.5973088e+08 2.5974132e+08    7783.8414    259.01676    1.5807403        20660 
   20670    2651.8649 2.5973089e+08 2.5974132e+08    7782.8746    259.01742    1.5813044        20670 
   20680    2649.4315 2.5973089e+08 2.5974132e+08    7781.9016    259.02585    1.5818712        20680 
   20690    2646.8985 2.5973089e+08 2.5974132e+08    7780.9161    259.03676    1.5824448        20690 
   20700    2644.4519 2.597309e+08 2.5974132e+08    7779.9114    259.01345    1.5830292        20700 
   20710    2642.0427 2.597309e+08 2.5974132e+08    7778.8796     258.9146    1.5836291        20710 
   20720    2639.5657 2.597309e+08 2.5974132e+08    7777.8121    258.75087    1.5842499        20720 
   20730    2636.9494 2.5973091e+08 2.5974132e+08    7776.7072    258.55606    1.5848929        20730 
   20740    2634.3378 2.5973091e+08 2.5974132e+08    7775.5968    258.35758    1.5855399        20740 
   20750    2631.9365 2.5973091e+08 2.5974132e+08    7774.4761    258.16014    1.5861941        20750 
   20760    2629.8866 2.5973092e+08 2.5974132e+08    7773.3473    257.93547    1.5868546        20760 
   20770    2628.1258 2.5973092e+08 2.5974132e+08    7772.2252    257.66309    1.5875131        20770 
   20780    2626.3878 2.5973092e+08 2.5974132e+08    7771.0939    257.35645    1.5881789        20780 
   20790    2624.5378 2.5973093e+08 2.5974132e+08    7769.9428     257.0632    1.5888587        20790 
   20800    2622.5897 2.5973093e+08 2.5974132e+08     7768.799    256.80805    1.5895363        20800 
   20810    2620.5857 2.5973093e+08 2.5974132e+08     7767.666    256.58441    1.5902095        20810 
   20820    2618.6242 2.5973094e+08 2.5974132e+08    7766.5394    256.39311    1.5908805        20820 
   20830    2616.7297 2.5973094e+08 2.5974132e+08    7765.4133    256.23991    1.5915526        20830 
   20840    2614.8221 2.5973094e+08 2.5974132e+08    7764.2821    256.12065    1.5922286        20840 
   20850     2612.839 2.5973094e+08 2.5974132e+08    7763.1422    256.04557    1.5929103        20850 
   20860    2610.7533 2.5973095e+08 2.5974132e+08     7761.992    256.01131     1.593598        20860 
   20870    2608.5844 2.5973095e+08 2.5974132e+08    7760.8317    256.01004    1.5942913        20870 
   20880    2606.4437 2.5973095e+08 2.5974132e+08    7759.6624    256.00926    1.5949889        20880 
   20890    2604.4801 2.5973096e+08 2.5974132e+08    7758.4848    255.97603      1.59569        20890 
   20900    2602.7444 2.5973096e+08 2.5974132e+08    7757.3034    255.87498    1.5963915        20900 
   20910     2601.189 2.5973096e+08 2.5974132e+08    7756.1403    255.69644    1.5970798        20910 
   20920    2599.7235 2.5973097e+08 2.5974132e+08     7754.989    255.42847    1.5977586        20920 
   20930     2598.284 2.5973097e+08 2.5974132e+08    7753.8357    255.07875    1.5984359        20930 
   20940    2596.8114 2.5973097e+08 2.5974132e+08     7752.664    254.65218    1.5991209        20940 
   20950     2595.236 2.5973097e+08 2.5974132e+08    7751.4583    254.15129    1.5998224        20950 
   20960    2593.5502 2.5973098e+08 2.5974132e+08    7750.2274     253.5901    1.6005349        20960 
   20970    2591.8226 2.5973098e+08 2.5974132e+08    7748.9843    252.99722    1.6012504        20970 
   20980    2590.1203 2.5973098e+08 2.5974132e+08    7747.7057    252.37542    1.6019822        20980 
   20990    2588.4476 2.5973099e+08 2.5974132e+08    7746.3789    251.72985    1.6027371        20990 
   21000    2586.8137 2.5973099e+08 2.5974132e+08    7745.0609    251.07787    1.6034826        21000 
   21010    2585.2421 2.5973099e+08 2.5974132e+08    7743.7582    250.40933     1.604215        21010 
   21020    2583.8533 2.5973099e+08 2.5974132e+08    7742.4699    249.72705    1.6049352        21020 
   21030    2582.6942  2.59731e+08 2.5974132e+08    7741.1823    249.02636    1.6056509        21030 
   21040    2581.6521  2.59731e+08 2.5974132e+08    7739.8709    248.31181    1.6063759        21040 
   21050    2580.5587  2.59731e+08 2.5974132e+08    7738.5098    247.60646    1.6071242        21050 
   21060    2579.3353  2.59731e+08 2.5974132e+08    7737.1119    246.95359    1.6078884        21060 
   21070    2578.0521 2.5973101e+08 2.5974132e+08    7735.7223    246.38452    1.6086438        21070 
   21080    2576.8498 2.5973101e+08 2.5974132e+08     7734.369    245.89313    1.6093755        21080 
   21090    2575.8166 2.5973101e+08 2.5974132e+08    7733.0305     245.4402    1.6100955        21090 
   21100    2574.9271 2.5973101e+08 2.5974132e+08    7731.6801    245.00503    1.6108181        21100 
   21110    2574.0424 2.5973102e+08 2.5974132e+08    7730.2903    244.59971     1.611558        21110 
   21120     2573.045 2.5973102e+08 2.5974132e+08    7728.8711    244.24986    1.6123096        21120 
   21130    2571.9417 2.5973102e+08 2.5974132e+08      7727.45    243.98445    1.6130582        21130 
   21140    2570.8334 2.5973102e+08 2.5974132e+08    7726.0301    243.80272    1.6138021        21140 
   21150    2569.8567 2.5973103e+08 2.5974132e+08    7724.6326    243.68265    1.6145302        21150 
   21160    2569.0403 2.5973103e+08 2.5974132e+08    7723.2357    243.59451    1.6152537        21160 
   21170    2568.3259 2.5973103e+08 2.5974132e+08    7721.8101    243.52233    1.6159876        21170 
   21180     2567.642 2.5973103e+08 2.5974132e+08     7720.357    243.46589    1.6167306        21180 
   21190    2566.9533 2.5973103e+08 2.5974132e+08    7718.8913     243.4244    1.6174749        21190 
   21200    2566.2498 2.5973104e+08 2.5974132e+08    7717.4102    243.40458    1.6182213        21200 
   21210    2565.5232 2.5973104e+08 2.5974132e+08      7715.93    243.41507    1.6189616        21210 
   21220    2564.7372 2.5973104e+08 2.5974132e+08    7714.4625    243.46361    1.6196897        21220 
   21230    2563.8431 2.5973104e+08 2.5974132e+08    7712.9767    243.54941     1.620421        21230 
   21240    2562.8732 2.5973105e+08 2.5974132e+08    7711.4396    243.66214    1.6211712        21240 
   21250    2561.9541 2.5973105e+08 2.5974132e+08    7709.8444    243.78764    1.6219431        21250 
   21260    2561.1547 2.5973105e+08 2.5974132e+08    7708.2232    243.90993    1.6227206        21260 
   21270    2560.4639 2.5973105e+08 2.5974132e+08    7706.6364    244.02478    1.6234749        21270 
   21280    2559.8714 2.5973106e+08 2.5974132e+08    7705.0757    244.13328    1.6242102        21280 
   21290    2559.3642 2.5973106e+08 2.5974132e+08    7703.5069    244.22618     1.624943        21290 
   21300    2558.8782 2.5973106e+08 2.5974132e+08     7701.895     244.2736    1.6256893        21300 
   21310    2558.3438 2.5973106e+08 2.5974132e+08    7700.2012    244.24667    1.6264662        21310 
   21320    2557.7578 2.5973106e+08 2.5974132e+08    7698.4518    244.13877    1.6272609        21320 
   21330    2557.1464 2.5973107e+08 2.5974132e+08    7696.7423    243.99546    1.6280298        21330 
   21340    2556.3737 2.5973107e+08 2.5974132e+08    7695.0717    243.88522    1.6287738        21340 
   21350    2555.2807 2.5973107e+08 2.5974132e+08    7693.4018    243.85231    1.6295103        21350 
   21360     2554.113 2.5973107e+08 2.5974132e+08     7691.695    243.86136    1.6302557        21360 
   21370    2553.3144 2.5973108e+08 2.5974132e+08    7689.9203    243.83585    1.6310227        21370 
   21380    2552.6907 2.5973108e+08 2.5974132e+08    7688.1219    243.73756    1.6317916        21380 
   21390    2552.3758 2.5973108e+08 2.5974132e+08    7686.3093    243.53788    1.6325583        21390 
   21400    2552.7165 2.5973108e+08 2.5974132e+08    7684.5039      243.261    1.6333135        21400 
   21410    2553.0649 2.5973108e+08 2.5974132e+08     7682.711    242.99391    1.6340555        21410 
   21420    2553.0221 2.5973109e+08 2.5974132e+08    7680.8898    242.81586    1.6348009        21420 
   21430     2552.745 2.5973109e+08 2.5974132e+08    7679.0046    242.73286    1.6355639        21430 
   21440    2552.4858 2.5973109e+08 2.5974132e+08    7677.0827    242.72128     1.636333        21440 
   21450    2552.4106 2.5973109e+08 2.5974132e+08    7675.1298    242.75598    1.6371054        21450 
   21460    2552.5239 2.597311e+08 2.5974132e+08    7673.1679     242.8129    1.6378725        21460 
   21470    2552.6844 2.597311e+08 2.5974132e+08    7671.2307     242.8597    1.6386215        21470 
   21480     2552.803 2.597311e+08 2.5974132e+08    7669.2757    242.88852    1.6393691        21480 
   21490    2552.8908 2.597311e+08 2.5974132e+08    7667.2566    242.90302    1.6401328        21490 
   21500    2552.9668 2.597311e+08 2.5974132e+08    7665.1299    242.91578    1.6409285        21500 
   21510    2552.9265 2.597311e+08 2.5974132e+08    7662.9478    242.96245    1.6417362        21510 
   21520    2552.7022 2.5973111e+08 2.5974132e+08    7660.8204    243.06179    1.6425154        21520 
   21530    2552.4456 2.5973111e+08 2.5974132e+08    7658.7363    243.20202    1.6432715        21530 
   21540    2552.4058 2.5973111e+08 2.5974132e+08    7656.6456    243.33722    1.6440231        21540 
   21550    2552.7274 2.5973111e+08 2.5974132e+08    7654.4982    243.43499     1.644788        21550 
   21560    2553.3808 2.5973112e+08 2.5974132e+08    7652.2466    243.47883    1.6455825        21560 
   21570    2554.1505 2.5973112e+08 2.5974132e+08    7649.9545    243.47692    1.6463833        21570 
   21580    2554.8879 2.5973112e+08 2.5974132e+08    7647.6735    243.43513    1.6471724        21580 
   21590    2555.6495 2.5973112e+08 2.5974132e+08    7645.4438    243.36346    1.6479361        21590 
   21600    2556.5399 2.5973112e+08 2.5974132e+08    7643.2142    243.28106    1.6486923        21600 
   21610     2557.553 2.5973112e+08 2.5974132e+08    7640.9301    243.18937    1.6494593        21610 
   21620    2558.6167 2.5973112e+08 2.5974132e+08    7638.5527    243.08953    1.6502494        21620 
   21630    2559.6725 2.5973112e+08 2.5974132e+08    7636.1404    242.99367     1.651043        21630 
   21640    2560.7686 2.5973113e+08 2.5974132e+08     7633.706    242.91409    1.6518355        21640 
   21650    2561.9026 2.5973113e+08 2.5974132e+08    7631.3113    242.86474    1.6526072        21650 
   21660    2563.0346 2.5973113e+08 2.5974132e+08    7628.9254    242.85154    1.6533685        21660 
   21670    2564.1758 2.5973113e+08 2.5974132e+08    7626.4893    242.85476    1.6541381        21670 
   21680    2565.4406 2.5973113e+08 2.5974132e+08    7623.9416    242.84845    1.6549349        21680 
   21690     2566.914 2.5973113e+08 2.5974132e+08    7621.3206    242.80813    1.6557463        21690 
   21700    2568.5565 2.5973113e+08 2.5974132e+08    7618.6839    242.72946    1.6565541        21700 
   21710     2570.199 2.5973113e+08 2.5974132e+08    7616.1164    242.61774    1.6573328        21710 
   21720    2571.8027 2.5973114e+08 2.5974132e+08     7613.564    242.47145    1.6580994        21720 
   21730    2573.4322 2.5973114e+08 2.5974132e+08    7610.9622    242.27755    1.6588732        21730 
   21740    2575.1856 2.5973114e+08 2.5974132e+08    7608.2412    242.01599    1.6596747        21740 
   21750    2577.0615 2.5973114e+08 2.5974132e+08    7605.4393    241.69036    1.6604917        21750 
   21760    2579.0106 2.5973114e+08 2.5974132e+08     7602.626    241.31049     1.661304        21760 
   21770    2580.9876 2.5973114e+08 2.5974132e+08    7599.8813    240.90592     1.662089        21770 
   21780    2583.0486 2.5973114e+08 2.5974132e+08    7597.1573    240.49266    1.6628609        21780 
   21790    2585.2456 2.5973114e+08 2.5974132e+08    7594.3842    240.07635    1.6636399        21790 
   21800    2587.5998 2.5973114e+08 2.5974132e+08    7591.4906    239.65823    1.6644455        21800 
   21810    2590.0379 2.5973114e+08 2.5974132e+08    7588.5283    239.24755     1.665263        21810 
   21820    2592.5509 2.5973114e+08 2.5974132e+08    7585.5462     238.8428     1.666079        21820 
   21830    2595.1179 2.5973114e+08 2.5974132e+08    7582.6332    238.44065    1.6668696        21830 
   21840    2597.7755 2.5973114e+08 2.5974132e+08    7579.7471    238.02406    1.6676469        21840 
   21850    2600.5543 2.5973114e+08 2.5974132e+08    7576.8126    237.57317    1.6684315        21850 
   21860    2603.4842 2.5973114e+08 2.5974132e+08    7573.7514    237.07122    1.6692441        21860 
   21870    2606.4766 2.5973114e+08 2.5974132e+08     7570.624    236.53042    1.6700683        21870 
   21880     2609.482 2.5973114e+08 2.5974132e+08    7567.4914    235.96626    1.6708882        21880 
   21890    2612.4391 2.5973114e+08 2.5974132e+08    7564.4332    235.39592    1.6716835        21890 
   21900    2615.3745 2.5973114e+08 2.5974132e+08    7561.4051    234.81541    1.6724662        21900 
   21910    2618.3446 2.5973114e+08 2.5974132e+08    7558.3263    234.20702    1.6732574        21910 
   21920    2621.4064 2.5973114e+08 2.5974132e+08    7555.1378     233.5701    1.6740721        21920 
   21930    2624.4883 2.5973114e+08 2.5974132e+08    7551.9165    232.93425    1.6748905        21930 
   21940     2627.455 2.5973114e+08 2.5974132e+08     7548.677    232.32523    1.6757092        21940 
   21950    2630.0827 2.5973115e+08 2.5974132e+08    7545.4962     231.8013    1.6765089        21950 
   21960    2632.3504 2.5973115e+08 2.5974132e+08    7542.3463    231.36924    1.6772971        21960 
   21970    2634.5751 2.5973115e+08 2.5974132e+08    7539.1412    230.97857    1.6780953        21970 
   21980    2636.9249 2.5973115e+08 2.5974132e+08    7535.8186    230.57165     1.678919        21980 
   21990    2639.1455 2.5973115e+08 2.5974132e+08    7532.4558    230.13718    1.6797488        21990 
   22000    2641.2575 2.5973115e+08 2.5974132e+08    7529.0836    229.80135    1.6805771        22000 
   22010    2643.3807 2.5973115e+08 2.5974132e+08    7525.8005    229.39656    1.6813802        22010 
   22020    2645.6496 2.5973115e+08 2.5974132e+08    7522.5418    229.00095     1.682174        22020 
   22030    2647.9742 2.5973115e+08 2.5974132e+08    7519.2159    228.58949    1.6829809        22030 
   22040    2650.2538 2.5973115e+08 2.5974132e+08     7515.758    228.18335    1.6838164        22040 
   22050    2652.3452 2.5973116e+08 2.5974132e+08    7512.2848    227.81582     1.684652        22050 
   22060    2654.2956 2.5973116e+08 2.5974132e+08    7508.8266    227.44692    1.6854806        22060 
   22070    2656.2559 2.5973116e+08 2.5974132e+08    7505.4493    227.03688    1.6862865        22070 
   22080    2658.3382 2.5973116e+08 2.5974132e+08    7502.0825    226.57304    1.6870866        22080 
   22090    2660.6168 2.5973116e+08 2.5974132e+08    7498.6352    226.01049    1.6879024        22090 
   22100    2663.0397 2.5973116e+08 2.5974132e+08    7495.1443    225.32582    1.6887251        22100 
   22110    2665.5989 2.5973116e+08 2.5974132e+08    7491.6396     224.5508    1.6895475        22110 
   22120    2668.2516 2.5973116e+08 2.5974132e+08    7488.1191    223.73698      1.69037        22120 
   22130    2670.8523 2.5973117e+08 2.5974132e+08    7484.6388    222.92716    1.6911796        22130 
   22140    2673.3899 2.5973117e+08 2.5974132e+08    7481.1544    222.10482    1.6919865        22140 
   22150    2675.9602 2.5973117e+08 2.5974132e+08    7477.5788     221.2277    1.6928109        22150 
   22160    2678.5832 2.5973117e+08 2.5974132e+08    7473.9558    220.28846    1.6936424        22160 
   22170    2681.2017 2.5973117e+08 2.5974132e+08    7470.2993    219.30789    1.6944778        22170 
   22180    2683.7301 2.5973117e+08 2.5974132e+08    7466.6395    218.31549      1.69531        22180 
   22190    2686.1389 2.5973117e+08 2.5974132e+08    7463.0479    217.36214     1.696123        22190 
   22200    2688.5729 2.5973117e+08 2.5974132e+08    7459.4306    216.42389    1.6969383        22200 
   22210    2691.1492 2.5973117e+08 2.5974132e+08    7455.6769    215.47716    1.6977804        22210 
   22220    2693.8133 2.5973118e+08 2.5974132e+08    7451.8306      214.516    1.6986394        22220 
   22230    2696.4802 2.5973118e+08 2.5974132e+08    7447.9932    213.53647    1.6994925        22230 
   22240    2699.1203 2.5973118e+08 2.5974132e+08    7444.2318    212.52944    1.7003251        22240 
   22250    2701.7692 2.5973118e+08 2.5974132e+08    7440.5241    211.48275    1.7011423        22250 
   22260    2704.4824 2.5973118e+08 2.5974132e+08    7436.7576    210.37428    1.7019689        22260 
   22270    2707.2093 2.5973118e+08 2.5974132e+08    7432.9319    209.22905     1.702805        22270 
   22280    2709.9252 2.5973118e+08 2.5974132e+08    7429.1001    208.08989    1.7036388        22280 
   22290    2712.6759 2.5973118e+08 2.5974132e+08     7425.258    206.96823    1.7044715        22290 
   22300     2715.442 2.5973118e+08 2.5974132e+08    7421.4135    205.86323    1.7053011        22300 
   22310    2718.1649 2.5973119e+08 2.5974132e+08    7417.5828    204.76077    1.7061243        22310 
   22320    2720.8754 2.5973119e+08 2.5974132e+08    7413.6903    203.64837    1.7069572        22320 
   22330    2723.5436 2.5973119e+08 2.5974132e+08     7409.765    202.54929    1.7077936        22330 
   22340    2726.1534 2.5973119e+08 2.5974132e+08    7405.8076    201.47668    1.7086331        22340 
   22350    2728.6908 2.5973119e+08 2.5974132e+08    7401.8137    200.43467    1.7094766        22350 
   22360    2731.1399 2.5973119e+08 2.5974132e+08    7397.8489    199.44312    1.7103103        22360 
   22370    2733.5805 2.5973119e+08 2.5974132e+08    7393.8777    198.49667    1.7111415        22370 
   22380    2736.1013 2.5973119e+08 2.5974132e+08    7389.7813    197.59253     1.711995        22380 
   22390    2738.6493 2.597312e+08 2.5974132e+08    7385.5989    196.75029    1.7128623        22390 
   22400    2741.2287 2.597312e+08 2.5974132e+08     7381.368    195.97519    1.7137354        22400 
   22410     2743.855 2.597312e+08 2.5974132e+08    7377.2062    195.25456      1.71459        22410 
   22420    2746.5277 2.597312e+08 2.5974132e+08    7373.1163     194.5673    1.7154257        22420 
   22430     2749.257 2.597312e+08 2.5974132e+08     7368.965    193.89395    1.7162699        22430 
   22440    2752.0047 2.597312e+08 2.5974132e+08    7364.7438    193.24802     1.717124        22440 
   22450    2754.7186 2.5973121e+08 2.5974132e+08    7360.5175     192.6563    1.7179749        22450 
   22460    2757.3861 2.5973121e+08 2.5974132e+08    7356.2815    192.14749    1.7188234        22460 
   22470    2760.0257 2.5973121e+08 2.5974132e+08    7352.0361    191.74047    1.7196695        22470 
   22480    2762.6778 2.5973121e+08 2.5974132e+08    7347.7897    191.43209    1.7205115        22480 
   22490    2765.3929 2.5973121e+08 2.5974132e+08    7343.4961    191.19578    1.7213585        22490 
   22500    2768.1242 2.5973121e+08 2.5974132e+08    7339.1732    191.01323    1.7222067        22500 
   22510    2770.8282 2.5973122e+08 2.5974132e+08    7334.8154    190.86533    1.7230572        22510 
   22520     2773.498 2.5973122e+08 2.5974132e+08    7330.4173    190.74818    1.7239108        22520 
   22530    2776.1296 2.5973122e+08 2.5974132e+08    7326.0102    190.66442    1.7247614        22530 
   22540     2778.757 2.5973122e+08 2.5974132e+08    7321.5697    190.63611    1.7256135        22540 
   22550    2781.4371 2.5973122e+08 2.5974132e+08    7317.0176    190.68926    1.7264819        22550 
   22560    2784.1514 2.5973122e+08 2.5974132e+08    7312.4007    190.82968    1.7273573        22560 
   22570    2786.9326 2.5973123e+08 2.5974132e+08    7307.7141    191.03685    1.7282404        22570 
   22580    2789.7356 2.5973123e+08 2.5974132e+08    7303.0784    191.27864    1.7291084        22580 
   22590    2792.5553 2.5973123e+08 2.5974132e+08    7298.4866    191.53551    1.7299628        22590 
   22600    2795.4538 2.5973123e+08 2.5974132e+08    7293.7941    191.80865    1.7308304        22600 
   22610    2798.3626 2.5973123e+08 2.5974132e+08    7289.0555     192.1022    1.7317007        22610 
   22620    2801.2096 2.5973124e+08 2.5974132e+08    7284.3029    192.42964    1.7325678        22620 
   22630    2803.9662 2.5973124e+08 2.5974132e+08    7279.5311    192.78793    1.7334325        22630 
   22640    2806.6518 2.5973124e+08 2.5974132e+08    7274.7404    193.16036    1.7342945        22640 
   22650    2809.3537 2.5973124e+08 2.5974132e+08    7269.9183    193.52256    1.7351561        22650 
   22660    2812.1448 2.5973124e+08 2.5974132e+08    7265.0561    193.85475    1.7360186        22660 
   22670    2815.0233 2.5973125e+08 2.5974132e+08    7260.1519    194.13995    1.7368822        22670 
   22680    2817.9619 2.5973125e+08 2.5974132e+08     7255.199    194.37438    1.7377476        22680 
   22690    2820.9599 2.5973125e+08 2.5974132e+08    7250.1909     194.5566    1.7386161        22690 
   22700    2824.0257 2.5973125e+08 2.5974132e+08     7245.148    194.68401    1.7394836        22700 
   22710    2827.2199 2.5973125e+08 2.5974132e+08    7240.0134    194.75722    1.7403599        22710 
   22720    2830.5312 2.5973126e+08 2.5974132e+08    7234.7979    194.78424    1.7412427        22720 
   22730    2833.9156 2.5973126e+08 2.5974132e+08    7229.4983    194.78817    1.7421323        22730 
   22740    2836.7799 2.5973126e+08 2.5974132e+08    7224.1127    194.88176    1.7430287        22740 
   22750     2836.114 2.5973127e+08 2.5974132e+08    7218.7987    195.33094    1.7439058        22750 
   22760    2836.6552 2.5973127e+08 2.5974132e+08    7213.4715      195.553    1.7447778        22760 
   22770    2841.2993 2.5973127e+08 2.5974132e+08    7208.9035    195.15205    1.7455198        22770 
   22780    2843.2266 2.5973127e+08 2.5974132e+08    7204.4962     194.7316    1.7462308        22780 
   22790      2844.48 2.5973128e+08 2.5974132e+08    7199.8053    194.25163    1.7469824        22790 
   22800    2845.7934 2.5973128e+08 2.5974132e+08    7194.6655    193.79868    1.7477998        22800 
   22810    2847.6101 2.5973128e+08 2.5974132e+08    7189.1116    193.49329    1.7486761        22810 
   22820    2850.6907 2.5973129e+08 2.5974132e+08    7183.4475    193.38926    1.7495625        22820 
   22830    2855.2964 2.5973129e+08 2.5974132e+08    7177.5552    193.53111     1.750477        22830 
   22840     2859.343 2.5973129e+08 2.5974132e+08    7171.6931    193.78344    1.7513793        22840 
   22850    2860.9509 2.5973129e+08 2.5974132e+08     7165.885    194.07958    1.7522659        22850 
   22860    2860.5175 2.597313e+08 2.5974132e+08    7159.9805    194.51897      1.75316        22860 
   22870    2861.5692 2.597313e+08 2.5974132e+08    7154.4042    194.49609    1.7539977        22870 
   22880    2863.5122 2.5973131e+08 2.5974132e+08    7149.2768    193.96858    1.7547624        22880 
   22890    2865.5338 2.5973131e+08 2.5974132e+08    7144.0968    193.29418    1.7555296        22890 
   22900     2867.885 2.5973131e+08 2.5974132e+08    7138.7103     192.6832    1.7563217        22900 
   22910    2870.5804 2.5973132e+08 2.5974132e+08     7133.179    192.15061    1.7571293        22910 
   22920    2873.1558 2.5973132e+08 2.5974132e+08    7127.6603    191.66553    1.7579293        22920 
   22930    2875.7248 2.5973132e+08 2.5974132e+08    7121.9714    191.26843    1.7587481        22930 
   22940    2878.5468 2.5973133e+08 2.5974132e+08    7116.0902    191.02812    1.7595886        22940 
   22950    2881.5503 2.5973133e+08 2.5974132e+08    7110.1461    190.98705    1.7604319        22950 
   22960    2884.3522 2.5973133e+08 2.5974132e+08    7104.1023    191.16018    1.7612834        22960 
   22970    2886.8614 2.5973134e+08 2.5974132e+08    7097.8401    191.48526    1.7621593        22970 
   22980    2889.3223 2.5973134e+08 2.5974132e+08    7091.3528    191.79664    1.7630603        22980 
   22990    2891.6655 2.5973134e+08 2.5974132e+08    7084.8565     192.0444     1.763956        22990 
   23000    2894.4681 2.5973135e+08 2.5974132e+08    7078.4725    192.98648    1.7648302        23000 
   23010    2897.1605 2.5973135e+08 2.5974132e+08    7072.0527    193.33614    1.7657035        23010 
   23020    2899.5793 2.5973136e+08 2.5974132e+08    7065.5202     193.7318    1.7665862        23020 
   23030      2902.03 2.5973136e+08 2.5974132e+08    7058.8711    194.17225    1.7674788        23030 
   23040    2904.9455 2.5973136e+08 2.5974132e+08    7052.1681    194.60917    1.7683727        23040 
   23050    2907.8646 2.5973137e+08 2.5974132e+08    7045.4316    195.07412    1.7692655        23050 
   23060    2910.4279 2.5973137e+08 2.5974132e+08    7038.6626    195.62128    1.7701569        23060 
   23070    2912.4353 2.5973138e+08 2.5974132e+08    7031.8622    196.37421    1.7710472        23070 
   23080     2913.721 2.5973138e+08 2.5974132e+08    7025.0317    197.42879    1.7719362        23080 
   23090    2915.1983 2.5973139e+08 2.5974132e+08    7018.1724    198.62976     1.772824        23090 
   23100    2917.2069 2.5973139e+08 2.5974132e+08    7011.2858    199.84281    1.7737105        23100 
   23110    2917.7545 2.597314e+08 2.5974132e+08    7004.3734    201.39469    1.7745958        23110 
   23120    2916.4094 2.5973141e+08 2.5974132e+08    6997.4375    203.43787    1.7754798        23120 
   23130    2914.2769 2.5973142e+08 2.5974132e+08    6990.4794    205.75246    1.7763624        23130 
   23140    2911.9865 2.5973143e+08 2.5974132e+08    6983.5005     208.1412    1.7772437        23140 
   23150    2909.8238 2.5973143e+08 2.5974132e+08    6976.5018    210.55319    1.7781238        23150 
   23160    2908.2255 2.5973144e+08 2.5974132e+08    6969.4846    212.97172    1.7790025        23160 
   23170    2907.1457 2.5973145e+08 2.5974132e+08    6962.4496    215.42933    1.7798798        23170 
   23180    2905.5523 2.5973146e+08 2.5974132e+08    6955.3977    218.03136    1.7807559        23180 
   23190     2902.182 2.5973147e+08 2.5974132e+08    6948.3327    220.93156    1.7816304        23190 
   23200    2898.8858 2.5973148e+08 2.5974132e+08    6941.4737    223.74817    1.7824763        23200 
   23210    2898.1135 2.5973149e+08 2.5974132e+08    6934.8003    226.03019    1.7832966        23210 
   23220    2897.2784 2.597315e+08 2.5974132e+08    6928.2755    227.82142     1.784096        23220 
   23230    2896.5201 2.597315e+08 2.5974132e+08    6921.9563    229.26279     1.784868        23230 
   23240    2895.5519 2.5973151e+08 2.5974132e+08    6915.6834    230.67874     1.785632        23240 
   23250    2894.5019 2.5973152e+08 2.5974132e+08    6909.4603    232.24927     1.786388        23250 
   23260    2893.9009 2.5973152e+08 2.5974132e+08    6903.3824     234.0136    1.7871243        23260 
   23270     2892.903 2.5973153e+08 2.5974132e+08    6897.4365    235.98218    1.7878428        23270 
   23280    2891.1627 2.5973154e+08 2.5974132e+08    6891.6864    237.99073    1.7885361        23280 
   23290    2889.3097 2.5973155e+08 2.5974132e+08    6886.1944    239.79732    1.7891968        23290 
   23300     2888.249 2.5973155e+08 2.5974132e+08    6880.9115    241.27886    1.7898311        23300 
   23310    2888.4535 2.5973156e+08 2.5974132e+08    6875.6948    242.43762    1.7904563        23310 
   23320    2889.0943 2.5973156e+08 2.5974132e+08    6870.4621    243.35997    1.7910823        23320 
   23330     2889.162 2.5973157e+08 2.5974132e+08    6865.1665    244.20331    1.7917149        23330 
   23340    2888.6134 2.5973157e+08 2.5974132e+08    6859.7892    245.04054    1.7923562        23340 
   23350    2887.9084 2.5973158e+08 2.5974132e+08    6854.3351    245.88913    1.7930058        23350 
   23360     2886.829 2.5973159e+08 2.5974132e+08    6848.8139    246.84822    1.7936627        23360 
   23370    2884.1457 2.5973159e+08 2.5974132e+08    6843.2251    248.09797    1.7943269        23370 
   23380    2879.1474 2.597316e+08 2.5974132e+08    6837.5716    249.73518    1.7949984        23380 
   23390    2872.5088 2.5973162e+08 2.5974132e+08     6831.838     251.6543     1.795679        23390 
   23400    2864.7197 2.5973163e+08 2.5974132e+08     6826.007    253.74817    1.7963711        23400 
   23410    2856.6562 2.5973164e+08 2.5974132e+08     6820.094    255.86961    1.7970729        23410 
   23420    2849.8368 2.5973166e+08 2.5974132e+08    6814.2045    257.78216    1.7977721        23420 
   23430     2843.671 2.5973167e+08 2.5974132e+08    6808.3369    259.53426     1.798469        23430 
   23440    2838.6468 2.5973168e+08 2.5974132e+08    6802.4722     261.0714    1.7991659        23440 
   23450    2834.9155 2.5973169e+08 2.5974132e+08    6796.5844    262.33472    1.7998661        23450 
   23460    2831.6616 2.597317e+08 2.5974132e+08     6790.647    263.53135    1.8005727        23460 
   23470    2829.2357 2.5973171e+08 2.5974132e+08    6784.6452    264.68894    1.8012878        23470 
   23480    2827.3874 2.5973171e+08 2.5974132e+08      6778.59    265.71226    1.8020102        23480 
   23490    2825.3722 2.5973172e+08 2.5974132e+08    6772.5597    266.56871    1.8027307        23490 
   23500    2823.4952 2.5973173e+08 2.5974132e+08    6766.5706    267.17937    1.8034475        23500 
   23510    2821.6098 2.5973174e+08 2.5974132e+08    6760.6115    267.62933    1.8041623        23510 
   23520    2819.1288 2.5973175e+08 2.5974132e+08    6754.7075    268.02714    1.8048722        23520 
   23530    2815.7066 2.5973176e+08 2.5974132e+08    6748.8194    268.44364    1.8055823        23530 
   23540    2811.1044 2.5973177e+08 2.5974132e+08    6742.9271    269.00804    1.8062955        23540 
   23550    2804.9767 2.5973178e+08 2.5974132e+08    6737.1335    269.81545    1.8069995        23550 
   23560    2797.0563 2.5973179e+08 2.5974132e+08    6731.6778    270.94766    1.8076656        23560 
   23570    2786.5474 2.5973181e+08 2.5974132e+08    6726.4249    272.59034    1.8083103        23570 
   23580     2772.485 2.5973183e+08 2.5974132e+08    6721.1759    274.93353    1.8089583        23580 
   23590    2753.5022 2.5973185e+08 2.5974132e+08    6715.4853    278.24359    1.8096657        23590 
   23600    2735.4258 2.5973188e+08 2.5974132e+08    6709.3447    281.83829    1.8104357        23600 
   23610    2722.4343 2.5973189e+08 2.5974132e+08    6703.4213     284.7182    1.8111859        23610 
   23620    2711.6231 2.5973191e+08 2.5974132e+08    6697.8702    287.28698    1.8118962        23620 
   23630    2704.1235 2.5973192e+08 2.5974132e+08    6692.4136    289.78418    1.8126019        23630 
   23640     2695.607 2.5973194e+08 2.5974132e+08    6687.0199    292.61276    1.8133069        23640 
   23650    2686.7707 2.5973195e+08 2.5974132e+08    6682.0025    295.36428    1.8139698        23650 
   23660    2678.6752 2.5973197e+08 2.5974132e+08    6677.1015    297.83304    1.8146238        23660 
   23670    2669.0607 2.5973198e+08 2.5974132e+08    6672.2554    300.29643    1.8152769        23670 
   23680    2658.0505 2.5973199e+08 2.5974132e+08     6667.878    302.69807    1.8158724        23680 
   23690    2646.1676 2.5973201e+08 2.5974132e+08     6663.701    305.09051    1.8164455        23690 
   23700    2633.4459 2.5973203e+08 2.5974132e+08    6659.5616    307.60645    1.8170183        23700 
   23710    2619.9679 2.5973205e+08 2.5974132e+08    6655.4048    310.32098    1.8175986        23710 
   23720     2607.033 2.5973206e+08 2.5974132e+08    6651.1954     313.0798    1.8181914        23720 
   23730    2596.4188 2.5973208e+08 2.5974132e+08    6646.9396    315.60275    1.8187964        23730 
   23740    2588.1965 2.5973209e+08 2.5974132e+08    6642.7782    317.70532    1.8193939        23740 
   23750    2581.1303 2.597321e+08 2.5974132e+08     6638.777    319.53942    1.8199741        23750 
   23760    2573.1263 2.5973211e+08 2.5974132e+08    6634.8725    321.48048    1.8205462        23760 
   23770    2559.2559 2.5973213e+08 2.5974132e+08    6630.8999    324.14302    1.8211348        23770 
   23780    2539.6698 2.5973215e+08 2.5974132e+08    6626.5185    327.63105    1.8217924        23780 
   23790    2523.1453 2.5973218e+08 2.5974132e+08    6621.7857    330.97041    1.8225137        23790 
   23800    2506.4132 2.597322e+08 2.5974132e+08    6617.1913    334.03944    1.8232262        23800 
   23810    2491.2936 2.5973222e+08 2.5974132e+08    6612.2923    336.91048     1.824001        23810 
   23820    2478.2073 2.5973224e+08 2.5974132e+08    6607.5794    339.53628    1.8247622        23820 
   23830    2467.1966 2.5973225e+08 2.5974132e+08    6603.1752    341.95158    1.8254888        23830 
   23840    2458.7682 2.5973226e+08 2.5974132e+08    6598.9543    344.03983    1.8261995        23840 
   23850     2451.251 2.5973227e+08 2.5974132e+08    6594.9951    345.86844    1.8268791        23850 
   23860    2443.9559 2.5973229e+08 2.5974132e+08    6591.3313    347.43402    1.8275193        23860 
   23870    2438.9788 2.5973229e+08 2.5974132e+08    6587.8497    348.61384     1.828138        23870 
   23880    2435.9695 2.597323e+08 2.5974132e+08    6584.4039    349.46325    1.8287603        23880 
   23890    2434.3826 2.5973231e+08 2.5974132e+08    6580.8895    350.04667    1.8294056        23890 
   23900    2435.1955 2.5973231e+08 2.5974132e+08    6577.2528      350.153    1.8300847        23900 
   23910    2436.1018 2.5973231e+08 2.5974132e+08    6573.4439    349.84995    1.8308091        23910 
   23920    2434.9711 2.5973232e+08 2.5974132e+08    6569.5672     349.4539    1.8315609        23920 
   23930    2432.2445 2.5973232e+08 2.5974132e+08    6565.7328    349.19621    1.8323196        23930 
   23940    2429.8872 2.5973233e+08 2.5974132e+08    6562.0297    349.03345    1.8330675        23940 
   23950    2430.2529 2.5973233e+08 2.5974132e+08    6558.4569    348.53578     1.833804        23950 
   23960    2432.4425 2.5973233e+08 2.5974132e+08    6554.8909    347.75491    1.8345544        23960 
   23970    2434.1644 2.5973234e+08 2.5974132e+08    6551.2061    346.83399    1.8353466        23970 
   23980    2434.3262 2.5973234e+08 2.5974132e+08    6547.5605    345.73757    1.8361481        23980 
   23990    2434.3128 2.5973234e+08 2.5974132e+08    6543.9992    344.32696    1.8369485        23990 
   24000    2434.2774 2.5973235e+08 2.5974132e+08    6540.5193    356.16489     1.837748        24000 
   24010    2422.6699 2.5973236e+08 2.5974132e+08    6537.1204    351.38303    1.8385465        24010 
   24020    2416.1102 2.5973237e+08 2.5974132e+08    6533.8014    347.61196    1.8393441        24020 
   24030    2412.6462 2.5973238e+08 2.5974132e+08    6530.5584    344.01469    1.8401406        24030 
   24040    2411.0668 2.5973238e+08 2.5974132e+08    6527.3877    340.41538    1.8409362        24040 
   24050    2410.4974 2.5973239e+08 2.5974132e+08    6524.2855    336.95376    1.8417309        24050 
   24060    2410.7576 2.5973239e+08 2.5974132e+08    6521.2481     333.6685    1.8425246        24060 
   24070    2411.9724 2.5973239e+08 2.5974132e+08    6518.2722    330.46678    1.8433173        24070 
   24080    2414.1277 2.5973239e+08 2.5974132e+08     6515.355    327.31304    1.8441091        24080 
   24090    2416.9761 2.5973239e+08 2.5974132e+08     6512.494    324.14788    1.8448999        24090 
   24100    2420.1341 2.5973239e+08 2.5974132e+08    6509.6873    320.88262    1.8456898        24100 
   24110    2423.1656 2.5973239e+08 2.5974132e+08    6506.9334    317.51935    1.8464788        24110 
   24120    2425.7029 2.5973239e+08 2.5974132e+08     6504.231    314.03635    1.8472669        24120 
   24130    2427.7176 2.5973239e+08 2.5974132e+08    6501.5787    310.40277     1.848054        24130 
   24140    2429.5066 2.5973239e+08 2.5974132e+08    6498.9751    306.60623    1.8488401        24140 
   24150    2431.4284 2.5973239e+08 2.5974132e+08    6496.4186     302.6079    1.8496254        24150 
   24160    2433.5048 2.5973239e+08 2.5974132e+08    6493.9073    298.42174    1.8504098        24160 
   24170    2435.3202 2.5973239e+08 2.5974132e+08    6491.5177     294.2573    1.8511681        24170 
   24180    2436.5912 2.597324e+08 2.5974132e+08    6489.2465    290.22336    1.8518997        24180 
   24190      2437.19 2.597324e+08 2.5974132e+08    6487.0057    286.24526    1.8526316        24190 
   24200    2437.0316 2.597324e+08 2.5974132e+08    6484.7596    282.28852    1.8533753        24200 
   24210    2436.9369 2.597324e+08 2.5974132e+08    6482.5148    278.28716    1.8541283        24210 
   24220     2437.745 2.597324e+08 2.5974132e+08    6480.2966     274.1987    1.8548815        24220 
   24230    2439.1257 2.597324e+08 2.5974132e+08    6478.1124    270.06381    1.8556319        24230 
   24240    2440.3966 2.597324e+08 2.5974132e+08    6475.9554    265.90834    1.8563809        24240 
   24250    2441.1979 2.5973241e+08 2.5974132e+08     6473.804    261.72339    1.8571355        24250 
   24260    2441.5356 2.5973241e+08 2.5974132e+08    6471.6695     257.5459    1.8578912        24260 
   24270    2441.6072 2.5973241e+08 2.5974132e+08      6469.59    253.46982    1.8586336        24270 
   24280    2441.6355 2.5973241e+08 2.5974132e+08    6467.5485    249.43529    1.8593681        24280 
   24290    2441.7173 2.5973241e+08 2.5974132e+08    6465.5284    245.46252       1.8601        24290 
   24300    2441.7534 2.5973242e+08 2.5974132e+08    6463.5136     241.5455    1.8608346        24300 
   24310    2441.5888 2.5973242e+08 2.5974132e+08    6461.4861    237.65514    1.8615781        24310 
   24320    2441.1806 2.5973242e+08 2.5974132e+08    6459.4253    233.79279    1.8623379        24320 
   24330    2440.5986 2.5973242e+08 2.5974132e+08    6457.3225    229.94299     1.863117        24330 
   24340    2439.9407 2.5973243e+08 2.5974132e+08    6455.2076    226.18412    1.8639038        24340 
   24350    2439.2118 2.5973243e+08 2.5974132e+08    6453.0821    222.49082    1.8646976        24350 
   24360    2438.4165 2.5973243e+08 2.5974132e+08    6450.9412    218.86481    1.8654994        24360 
   24370    2437.5722 2.5973243e+08 2.5974132e+08     6448.799    215.34121    1.8663033        24370 
   24380    2436.6767 2.5973244e+08 2.5974132e+08    6446.6575    211.93082    1.8671079        24380 
   24390    2435.7278 2.5973244e+08 2.5974132e+08    6444.5117    208.62392    1.8679144        24390 
   24400    2434.7201 2.5973244e+08 2.5974132e+08    6442.3585    205.44111    1.8687229        24400 
   24410    2433.4739 2.5973245e+08 2.5974132e+08    6440.1958    202.41655    1.8695335        24410 
   24420    2431.3878 2.5973245e+08 2.5974132e+08    6438.0218    199.59386    1.8703458        24420 
   24430    2428.3384 2.5973246e+08 2.5974132e+08    6435.8338    196.93849    1.8711601        24430 
   24440    2425.4127 2.5973246e+08 2.5974132e+08    6433.6287    194.41424    1.8719766        24440 
   24450    2423.1793 2.5973247e+08 2.5974132e+08    6431.4036    192.01557    1.8727954        24450 
   24460    2420.9746 2.5973247e+08 2.5974132e+08    6429.1554    189.73287    1.8736169        24460 
   24470    2418.3527 2.5973248e+08 2.5974132e+08    6426.8806     187.5331    1.8744415        24470 
   24480     2415.565 2.5973248e+08 2.5974132e+08    6424.5751    185.46514    1.8752698        24480 
   24490    2412.9363 2.5973249e+08 2.5974132e+08    6422.2352    183.60087    1.8761024        24490 
   24500    2410.3772 2.5973249e+08 2.5974132e+08    6419.8573    181.93834    1.8769398        24500 
   24510     2407.713 2.597325e+08 2.5974132e+08     6417.439    180.43852    1.8777821        24510 
   24520    2404.9012 2.597325e+08 2.5974132e+08    6414.9796     179.1347    1.8786288        24520 
   24530    2401.9316 2.5973251e+08 2.5974132e+08    6412.4776    178.02604    1.8794798        24530 
   24540     2398.861 2.5973251e+08 2.5974132e+08    6409.9315    177.07449    1.8803349        24540 
   24550    2395.7994 2.5973252e+08 2.5974132e+08    6407.3391    176.24475    1.8811943        24550 
   24560    2392.7911 2.5973252e+08 2.5974132e+08    6404.6981    175.50111    1.8820581        24560 
   24570    2389.8221 2.5973253e+08 2.5974132e+08    6402.0162    174.85582    1.8829234        24570 
   24580    2386.9374 2.5973253e+08 2.5974132e+08    6399.3411     174.3223    1.8837746        24580 
   24590    2384.1245 2.5973254e+08 2.5974132e+08    6396.6543    173.90319    1.8846177        24590 
   24600    2381.3563 2.5973255e+08 2.5974132e+08    6393.9279    173.59733    1.8854615        24600 
   24610    2378.5796 2.5973255e+08 2.5974132e+08    6391.1376    173.39885     1.886313        24610 
   24620    2375.7386 2.5973256e+08 2.5974132e+08    6388.2576    173.29986    1.8871793        24620 
   24630    2372.8114 2.5973256e+08 2.5974132e+08    6385.2619    173.30011    1.8880674        24630 
   24640    2369.8506 2.5973257e+08 2.5974132e+08    6382.1889    173.40809    1.8889651        24640 
   24650    2366.8919 2.5973257e+08 2.5974132e+08    6379.0694    173.62999    1.8898629        24650 
   24660    2363.9392 2.5973258e+08 2.5974132e+08    6375.8965    173.97014    1.8907629        24660 
   24670    2361.0053 2.5973259e+08 2.5974132e+08    6372.6683    174.41655    1.8916655        24670 
   24680    2358.0942 2.5973259e+08 2.5974132e+08    6369.3839    174.96222    1.8925709        24680 
   24690    2355.2033 2.597326e+08 2.5974132e+08     6366.043    175.60441    1.8934791        24690 
   24700    2352.3265 2.5973261e+08 2.5974132e+08    6362.6436    176.32918    1.8943908        24700 
   24710    2349.4679 2.5973261e+08 2.5974132e+08     6359.181     177.1285    1.8953072        24710 
   24720    2346.6374 2.5973262e+08 2.5974132e+08     6355.651    177.97848    1.8962295        24720 
   24730    2343.8493 2.5973262e+08 2.5974132e+08    6352.0527    178.86195    1.8971579        24730 
   24740    2341.1347 2.5973263e+08 2.5974132e+08    6348.4054    179.76907    1.8980877        24740 
   24750    2338.4959 2.5973264e+08 2.5974132e+08     6344.711    180.70156    1.8990187        24750 
   24760    2335.9103 2.5973264e+08 2.5974132e+08    6340.9647    181.66509    1.8999522        24760 
   24770    2333.3642 2.5973265e+08 2.5974132e+08    6337.1635     182.6761    1.9008894        24770 
   24780    2330.8656 2.5973266e+08 2.5974132e+08    6333.3092     183.7437    1.9018298        24780 
   24790    2328.4308 2.5973266e+08 2.5974132e+08    6329.4142    184.87639    1.9027707        24790 
   24800     2326.032 2.5973267e+08 2.5974132e+08    6325.4802    186.07863     1.903712        24800 
   24810    2323.2309 2.5973268e+08 2.5974132e+08    6321.5088    187.40992    1.9046534        24810 
   24820    2319.3726 2.5973268e+08 2.5974132e+08     6317.503    188.91253    1.9055945        24820 
   24830    2314.7612 2.5973269e+08 2.5974132e+08    6313.4659    190.54298    1.9065347        24830 
   24840    2310.7749 2.597327e+08 2.5974132e+08    6309.4025    192.08627    1.9074731        24840 
   24850    2307.5165 2.5973271e+08 2.5974132e+08    6305.3132    193.43866    1.9084098        24850 
   24860    2303.8753 2.5973272e+08 2.5974132e+08    6301.1964     194.8103    1.9093454        24860 
   24870    2299.5272 2.5973272e+08 2.5974132e+08    6297.0507    196.25318    1.9102804        24870 
   24880    2294.6721 2.5973273e+08 2.5974132e+08    6292.8757    197.75065    1.9112152        24880 
   24890    2289.8589 2.5973274e+08 2.5974132e+08    6288.6718    199.30419      1.91215        24890 
   24900    2285.3573 2.5973275e+08 2.5974132e+08    6284.4404    200.86034    1.9130848        24900 
   24910    2281.0323 2.5973276e+08 2.5974132e+08    6280.1832    202.38579    1.9140196        24910 
   24920    2275.7698 2.5973277e+08 2.5974132e+08    6275.9029    204.02001    1.9149542        24920 
   24930    2267.9983 2.5973278e+08 2.5974132e+08    6271.6015    205.90615    1.9158887        24930 
   24940    2259.7032 2.5973279e+08 2.5974132e+08    6267.2811    207.98049    1.9168232        24940 
   24950    2253.2694 2.597328e+08 2.5974132e+08    6262.9443    209.94894    1.9177577        24950 
   24960    2245.7963 2.5973282e+08 2.5974132e+08    6258.5937    211.96503    1.9186922        24960 
   24970    2235.5327 2.5973283e+08 2.5974132e+08    6254.2371    214.28154    1.9196256        24970 
   24980    2225.1881 2.5973285e+08 2.5974132e+08    6249.8912    216.71113    1.9205549        24980 
   24990    2215.7933 2.5973286e+08 2.5974132e+08    6245.6212    218.96771    1.9214669        24990 
   25000    2206.5365 2.5973287e+08 2.5974132e+08    6241.5781    220.92628    1.9223298        25000 
   25010    2197.9354 2.5973289e+08 2.5974132e+08     6237.769    222.59769    1.9231427        25010 
   25020    2189.8583 2.597329e+08 2.5974132e+08    6234.0316    224.18438    1.9239406        25020 
   25030    2181.4171 2.5973291e+08 2.5974132e+08    6230.2518    225.74145    1.9247482        25030 
   25040    2173.7207 2.5973292e+08 2.5974132e+08    6226.7078    227.12752    1.9255062        25040 
   25050    2167.3314 2.5973293e+08 2.5974132e+08    6223.4386    228.36599    1.9262065        25050 
   25060    2161.8134 2.5973294e+08 2.5974132e+08    6220.3215    229.53073    1.9268754        25060 
   25070    2156.5443 2.5973295e+08 2.5974132e+08    6217.2785    230.64834    1.9275295        25070 
   25080    2150.9151 2.5973296e+08 2.5974132e+08    6214.2626    231.73995    1.9281792        25080 
   25090    2144.6294 2.5973297e+08 2.5974132e+08      6211.24    232.83705    1.9288319        25090 
   25100     2138.001 2.5973297e+08 2.5974132e+08     6208.169    233.98701    1.9294967        25100 
   25110    2131.5608 2.5973298e+08 2.5974132e+08    6205.0071    235.20711    1.9301833        25110 
   25120    2125.5512 2.5973299e+08 2.5974132e+08    6201.7244    236.47111    1.9308986        25120 
   25130    2119.7888  2.59733e+08 2.5974132e+08    6198.3105    237.81297    1.9316454        25130 
   25140    2113.8083 2.5973301e+08 2.5974132e+08    6194.7756     239.2627     1.932422        25140 
   25150    2106.7996 2.5973302e+08 2.5974132e+08    6191.1446    240.85271    1.9332238        25150 
   25160     2098.519 2.5973303e+08 2.5974132e+08    6187.4575    242.53797    1.9340425        25160 
   25170     2091.357 2.5973305e+08 2.5974132e+08    6183.8351    244.12368    1.9348517        25170 
   25180    2086.3714 2.5973305e+08 2.5974132e+08    6180.2589    245.49956    1.9356557        25180 
   25190    2082.4527 2.5973306e+08 2.5974132e+08    6176.6808    246.62731    1.9364658        25190 
   25200    2078.7049 2.5973307e+08 2.5974132e+08    6173.0907    247.55329    1.9372847        25200 
   25210    2075.0887 2.5973308e+08 2.5974132e+08     6169.564    248.29882    1.9380956        25210 
   25220     2071.615 2.5973308e+08 2.5974132e+08    6166.0887    248.91504    1.9389013        25220 
   25230    2068.2086 2.5973309e+08 2.5974132e+08    6162.6408    249.43054    1.9397079        25230 
   25240    2064.8182 2.597331e+08 2.5974132e+08    6159.2001    249.85798    1.9405203        25240 
   25250    2061.4277 2.597331e+08 2.5974132e+08    6155.7641    250.20863    1.9413398        25250 
   25260    2058.0238 2.5973311e+08 2.5974132e+08    6152.3317    250.50209    1.9421669        25260 
   25270    2054.6228 2.5973312e+08 2.5974132e+08    6148.9088    250.73692    1.9430009        25270 
   25280    2051.2672 2.5973312e+08 2.5974132e+08    6145.5075    250.92715    1.9438393        25280 
   25290     2047.999 2.5973313e+08 2.5974132e+08    6142.1415    251.07668    1.9446791        25290 
   25300    2044.8546 2.5973314e+08 2.5974132e+08    6138.8406    251.17305     1.945513        25300 
   25310    2041.8366 2.5973314e+08 2.5974132e+08    6135.6251    251.20796    1.9463358        25310 
   25320    2038.9114 2.5973315e+08 2.5974132e+08    6132.4852    251.19405      1.94715        25320 
   25330    2036.0401 2.5973316e+08 2.5974132e+08    6129.4075    251.12372    1.9479589        25330 
   25340    2033.1896 2.5973316e+08 2.5974132e+08    6126.3787    250.99341    1.9487661        25340 
   25350    2030.3391 2.5973317e+08 2.5974132e+08    6123.3895    250.80126    1.9495744        25350 
   25360    2027.4825 2.5973317e+08 2.5974132e+08    6120.4344    250.55125    1.9503854        25360 
   25370    2024.6234 2.5973318e+08 2.5974132e+08    6117.5125    250.25154    1.9511997        25370 
   25380    2021.7625 2.5973318e+08 2.5974132e+08    6114.6274     249.9111    1.9520166        25380 
   25390    2018.8636 2.5973319e+08 2.5974132e+08    6111.7852    249.55469    1.9528344        25390 
   25400    2015.8282 2.597332e+08 2.5974132e+08    6108.9931    249.20264    1.9536511        25400 
   25410    2012.5819 2.597332e+08 2.5974132e+08    6106.2584    248.85465    1.9544644        25410 
   25420    2009.2221 2.5973321e+08 2.5974132e+08    6103.5859    248.48831    1.9552725        25420 
   25430    2005.9535 2.5973321e+08 2.5974132e+08    6100.9754     248.0862     1.956075        25430 
   25440    2002.8693 2.5973322e+08 2.5974132e+08    6098.4228    247.63731    1.9568728        25440 
   25450    1999.8958 2.5973323e+08 2.5974132e+08    6095.9207    247.15042    1.9576678        25450 
   25460    1996.9109 2.5973323e+08 2.5974132e+08    6093.4611    246.63301    1.9584622        25460 
   25470    1993.8581 2.5973324e+08 2.5974132e+08    6091.0367    246.10526    1.9592582        25470 
   25480    1990.8027 2.5973324e+08 2.5974132e+08    6088.6414    245.59001    1.9600577        25480 
   25490    1987.8619 2.5973325e+08 2.5974132e+08    6086.2717    245.09366    1.9608619        25490 
   25500    1985.0512 2.5973325e+08 2.5974132e+08    6083.9268    244.61672     1.961671        25500 
   25510    1982.2774 2.5973326e+08 2.5974132e+08    6081.6084    244.11383    1.9624844        25510 
   25520    1979.5133 2.5973326e+08 2.5974132e+08    6079.3192    243.57386    1.9633013        25520 
   25530    1976.7677 2.5973327e+08 2.5974132e+08    6077.0603    242.99782    1.9641211        25530 
   25540    1974.0445 2.5973327e+08 2.5974132e+08    6074.8309     242.4041     1.964944        25540 
   25550     1971.339 2.5973328e+08 2.5974132e+08    6072.6513    241.80792    1.9657623        25550 
   25560     1968.598 2.5973328e+08 2.5974132e+08    6070.5276    241.22382     1.966573        25560 
   25570    1965.7737 2.5973329e+08 2.5974132e+08    6068.4545    240.66131    1.9673776        25570 
   25580    1962.9332 2.5973329e+08 2.5974132e+08    6066.4267    240.11294    1.9681777        25580 
   25590    1960.2132 2.597333e+08 2.5974132e+08    6064.4405    239.55542    1.9689741        25590 
   25600    1957.5949 2.597333e+08 2.5974132e+08    6062.4941    238.97419    1.9697673        25600 
   25610    1954.6211 2.5973331e+08 2.5974132e+08    6060.5862    238.40562    1.9705572        25610 
   25620    1950.8465 2.5973331e+08 2.5974132e+08    6058.7119    237.90816    1.9713455        25620 
   25630    1946.5575 2.5973332e+08 2.5974132e+08    6056.8528    237.47015    1.9721396        25630 
   25640    1942.4414 2.5973332e+08 2.5974132e+08    6054.9873    237.05049     1.972949        25640 
   25650    1938.6164 2.5973333e+08 2.5974132e+08    6053.1073    236.64427    1.9737776        25650 
   25660    1934.8308 2.5973333e+08 2.5974132e+08    6051.2093    236.22545    1.9746275        25660 
   25670    1930.7639 2.5973334e+08 2.5974132e+08    6049.2824    235.84491    1.9755044        25670 
   25680    1926.4052 2.5973335e+08 2.5974132e+08     6047.364    235.49912    1.9763915        25680 
   25690    1922.0156 2.5973335e+08 2.5974132e+08    6045.4528    235.15674    1.9772897        25690 
   25700    1917.8254 2.5973336e+08 2.5974132e+08    6043.5319    234.77084     1.978207        25700 
   25710    1913.7198 2.5973337e+08 2.5974132e+08    6041.5785    234.34845     1.979155        25710 
   25720    1909.4294 2.5973337e+08 2.5974132e+08    6039.5838    233.89426    1.9801395        25720 
   25730    1904.8555 2.5973338e+08 2.5974132e+08    6037.5701    233.40482    1.9811504        25730 
   25740    1899.8853 2.5973339e+08 2.5974132e+08    6035.4844    232.91435    1.9822163        25740 
   25750    1893.7665 2.5973339e+08 2.5974132e+08    6033.3537    232.57574     1.983326        25750 
   25760    1885.8987 2.597334e+08 2.5974132e+08    6031.2391    232.59991     1.984449        25760 
   25770    1876.9704 2.5973341e+08 2.5974132e+08    6029.1474    233.01822    1.9855826        25770 
   25780    1865.6817 2.5973343e+08 2.5974132e+08    6027.0779    233.96724    1.9867283        25780 
   25790    1852.6189 2.5973344e+08 2.5974132e+08    6025.0281    235.44035    1.9878889        25790 
   25800    1842.0745 2.5973346e+08 2.5974132e+08    6023.0009    236.85338    1.9890647        25800 
   25810    1831.9036 2.5973347e+08 2.5974132e+08    6021.0033    238.15564    1.9902541        25810 
   25820    1821.6888 2.5973348e+08 2.5974132e+08    6019.0414    239.50842    1.9914564        25820 
   25830    1811.7954 2.5973349e+08 2.5974132e+08    6017.1165    240.87343    1.9926741        25830 
   25840    1802.0989 2.597335e+08 2.5974132e+08    6015.2299    242.20974    1.9939097        25840 
   25850    1792.6731 2.5973351e+08 2.5974132e+08    6013.4076    243.45892    1.9951483        25850 
   25860    1782.9087 2.5973353e+08 2.5974132e+08    6011.6526    244.68463    1.9963881        25860 
   25870    1772.0733 2.5973354e+08 2.5974132e+08     6009.962    245.96844    1.9976299        25870 
   25880    1760.3295 2.5973355e+08 2.5974132e+08    6008.3316     247.3982    1.9988747        25880 
   25890    1747.8436 2.5973357e+08 2.5974132e+08    6006.7569    248.96466    2.0001233        25890 
   25900    1734.5164 2.5973358e+08 2.5974132e+08    6005.2343     250.6514    2.0013766        25900 
   25910     1721.371 2.597336e+08 2.5974132e+08    6003.7609    252.24388    2.0026357        25910 
   25920    1708.9427 2.5973361e+08 2.5974132e+08    6002.3366     253.5656    2.0039006        25920 
   25930    1697.4296 2.5973362e+08 2.5974132e+08    6000.9775    254.62898    2.0051573        25930 
   25940    1686.3399 2.5973363e+08 2.5974132e+08    5999.6729    255.52027    2.0064168        25940 
   25950    1674.8623 2.5973365e+08 2.5974132e+08    5998.4061    256.35555    2.0076988        25950 
   25960    1663.2243 2.5973366e+08 2.5974132e+08    5997.1673    257.09938    2.0090193        25960 
   25970    1652.1028 2.5973367e+08 2.5974132e+08    5995.9986    257.55409    2.0103374        25970 
   25980    1641.8908 2.5973368e+08 2.5974132e+08    5994.9289    257.66738    2.0116169        25980 
   25990     1632.102 2.5973369e+08 2.5974132e+08    5993.9255    257.45509    2.0128917        25990 
   26000    1622.5848 2.5973371e+08 2.5974132e+08    5992.9846    256.94014     2.014164        26000 
   26010    1614.0521 2.5973371e+08 2.5974132e+08    5992.1301    256.16704    2.0153955        26010 
   26020    1606.1575 2.5973372e+08 2.5974132e+08    5991.3304    255.17412    2.0166264        26020 
   26030    1598.4166 2.5973373e+08 2.5974132e+08    5990.5605    254.03593    2.0178993        26030 
   26040    1590.6901 2.5973374e+08 2.5974132e+08    5989.8389    252.86838    2.0191919        26040 
   26050    1583.1633 2.5973375e+08 2.5974132e+08    5989.1794    251.74971    2.0204851        26050 
   26060    1576.2782 2.5973376e+08 2.5974132e+08    5988.5829    250.68337    2.0217796        26060 
   26070    1570.1171 2.5973376e+08 2.5974132e+08    5988.0524    249.65379     2.023071        26070 
   26080    1564.4531 2.5973377e+08 2.5974132e+08    5987.5885    248.65714     2.024358        26080 
   26090    1559.3291 2.5973377e+08 2.5974132e+08    5987.1908    247.69507    2.0256409        26090 
   26100    1554.8895 2.5973378e+08 2.5974132e+08    5986.8584    246.76931    2.0269195        26100 
   26110    1550.9155 2.5973378e+08 2.5974132e+08    5986.5896    245.89921     2.028194        26110 
   26120    1547.1708 2.5973379e+08 2.5974132e+08    5986.3816    245.13251    2.0294644        26120 
   26130    1543.1826 2.5973379e+08 2.5974132e+08     5986.231    244.52419    2.0307307        26130 
   26140    1538.5566 2.597338e+08 2.5974132e+08    5986.1339    244.14842    2.0319929        26140 
   26150    1533.4429 2.597338e+08 2.5974132e+08    5986.0864    243.98426    2.0332512        26150 
   26160    1528.3012 2.5973381e+08 2.5974132e+08    5986.0845    243.88622    2.0345055        26160 
   26170    1523.3497 2.5973381e+08 2.5974132e+08    5986.1245     243.7363    2.0357559        26170 
   26180    1518.6445 2.5973382e+08 2.5974132e+08    5986.2032    243.49079    2.0370034        26180 
   26190    1512.9379 2.5973382e+08 2.5974132e+08     5986.318     243.2937    2.0382518        26190 
   26200    1506.5353 2.5973383e+08 2.5974132e+08    5986.4658    243.08519    2.0394935        26200 
   26210    1501.9367 2.5973383e+08 2.5974132e+08    5986.6442    242.74155    2.0407289        26210 
   26220    1497.8143 2.5973384e+08 2.5974132e+08    5986.8511    242.23328     2.041958        26220 
   26230    1493.2853 2.5973384e+08 2.5974132e+08    5987.0852    241.69905    2.0431812        26230 
   26240    1488.4063 2.5973385e+08 2.5974132e+08    5987.3455    241.29013    2.0443987        26240 
   26250    1483.5051 2.5973385e+08 2.5974132e+08     5987.628    241.00566    2.0455982        26250 
   26260    1478.8076 2.5973385e+08 2.5974132e+08    5987.9198    240.77327    2.0467366        26260 
   26270    1473.3985 2.5973386e+08 2.5974132e+08    5988.2305    240.64129    2.0478602        26270 
   26280    1466.9581 2.5973387e+08 2.5974132e+08    5988.5733    240.61426    2.0490152        26280 
   26290    1460.5658 2.5973387e+08 2.5974132e+08    5988.9257    240.65365    2.0501262        26290 
   26300    1455.0689 2.5973388e+08 2.5974132e+08    5989.2609    240.61084    2.0511238        26300 
   26310     1449.541 2.5973388e+08 2.5974132e+08    5989.5955    240.50013    2.0520704        26310 
   26320    1443.1273 2.5973389e+08 2.5974132e+08    5989.9604    240.35938    2.0530549        26320 
   26330    1435.8046 2.5973389e+08 2.5974132e+08    5990.3683    240.18947    2.0541039        26330 
   26340    1428.1145 2.597339e+08 2.5974132e+08    5990.7896     240.0119    2.0551379        26340 
   26350    1419.1198 2.5973391e+08 2.5974132e+08    5991.2355    239.82836    2.0561847        26350 
   26360    1408.5339 2.5973392e+08 2.5974132e+08    5991.7236    239.54667    2.0572806        26360 
   26370    1399.3521 2.5973393e+08 2.5974132e+08    5992.2313    238.88668    2.0583722        26370 
   26380    1391.2601 2.5973394e+08 2.5974132e+08    5992.7497    237.93567    2.0594409        26380 
   26390    1383.2791 2.5973394e+08 2.5974132e+08    5993.2871    236.89848    2.0605052        26390 
   26400    1375.9742 2.5973395e+08 2.5974132e+08    5993.8527    235.71447    2.0615814        26400 
   26410    1369.6819 2.5973396e+08 2.5974132e+08    5994.4398    234.25361     2.062655        26410 
   26420    1363.7824 2.5973396e+08 2.5974132e+08    5995.0531      232.515    2.0637329        26420 
   26430    1357.6391 2.5973397e+08 2.5974132e+08     5995.731    230.45048    2.0648765        26430 
   26440    1351.7362 2.5973397e+08 2.5974132e+08    5996.4415     228.2461    2.0660263        26440 
   26450     1346.077 2.5973398e+08 2.5974132e+08    5997.1807    226.03107    2.0671741        26450 
   26460    1340.4712 2.5973398e+08 2.5974132e+08    5997.9494    223.82873      2.06832        26460 
   26470    1334.8165 2.5973399e+08 2.5974132e+08    5998.7483     221.6868    2.0694643        26470 
   26480    1329.1357 2.5973399e+08 2.5974132e+08    5999.5781    219.64263    2.0706071        26480 
   26490    1323.4757  2.59734e+08 2.5974132e+08    6000.4394    217.62891    2.0717485        26490 
   26500    1317.8477  2.59734e+08 2.5974132e+08    6001.3325    215.60073    2.0728887        26500 
   26510    1312.2116 2.5973401e+08 2.5974132e+08    6002.2578    213.54438    2.0740277        26510 
   26520    1306.5552 2.5973401e+08 2.5974132e+08    6003.2159    211.45018    2.0751657        26520 
   26530    1300.9481 2.5973402e+08 2.5974132e+08    6004.2072    209.30984    2.0763029        26530 
   26540     1295.472 2.5973402e+08 2.5974132e+08    6005.2326    207.10198    2.0774394        26540 
   26550    1290.1681 2.5973402e+08 2.5974132e+08    6006.2932    204.80654    2.0785752        26550 
   26560    1285.0614 2.5973403e+08 2.5974132e+08    6007.3906    202.42236    2.0797105        26560 
   26570    1280.1444 2.5973403e+08 2.5974132e+08    6008.5263    199.95616    2.0808454        26570 
   26580    1275.3882 2.5973404e+08 2.5974132e+08    6009.7024    197.44863      2.08198        26580 
   26590    1270.7718 2.5973404e+08 2.5974132e+08    6010.9207    194.93955    2.0831144        26590 
   26600     1266.297 2.5973404e+08 2.5974132e+08    6012.1831    192.47049    2.0842487        26600 
   26610     1261.982 2.5973405e+08 2.5974132e+08    6013.4906    190.06685     2.085383        26610 
   26620    1257.8491 2.5973405e+08 2.5974132e+08     6014.844    187.74856    2.0865173        26620 
   26630    1253.8983 2.5973405e+08 2.5974132e+08    6016.2431    185.53857    2.0876518        26630 
   26640    1250.0916 2.5973405e+08 2.5974132e+08    6017.6865    183.45311    2.0887866        26640 
   26650     1246.362 2.5973406e+08 2.5974132e+08    6019.1725    181.50762    2.0899216        26650 
   26660    1242.6406 2.5973406e+08 2.5974132e+08    6020.6983    179.71461    2.0910571        26660 
   26670    1238.8796 2.5973406e+08 2.5974132e+08    6022.2604    178.07724     2.092193        26670 
   26680    1235.0451 2.5973406e+08 2.5974132e+08     6023.855    176.59613    2.0933294        26680 
   26690    1231.0971 2.5973406e+08 2.5974132e+08    6025.4774    175.23485    2.0944663        26690 
   26700    1226.9929 2.5973407e+08 2.5974132e+08    6027.1231    173.98023    2.0956039        26700 
   26710    1222.7017 2.5973407e+08 2.5974132e+08    6028.7825    172.82662     2.096739        26710 
   26720       1218.2 2.5973407e+08 2.5974132e+08    6030.4456    171.76648    2.0978681        26720 
   26730    1213.4793 2.5973408e+08 2.5974132e+08    6032.1078    170.76111    2.0989912        26730 
   26740    1208.5732 2.5973408e+08 2.5974132e+08    6033.7654    169.79419    2.1001084        26740 
   26750    1203.5358 2.5973408e+08 2.5974132e+08    6035.4153    168.85841      2.10122        26750 
   26760    1198.4039 2.5973409e+08 2.5974132e+08    6037.0548    167.96027     2.102326        26760 
   26770    1193.1687 2.5973409e+08 2.5974132e+08     6038.682    167.08288    2.1034266        26770 
   26780    1187.8227 2.5973409e+08 2.5974132e+08    6040.2955    166.21787    2.1045219        26780 
   26790     1182.371 2.597341e+08 2.5974132e+08     6041.894      165.347    2.1056121        26790 
   26800    1176.8423 2.597341e+08 2.5974132e+08    6043.4766    164.46248    2.1066974        26800 
   26810    1171.2819 2.597341e+08 2.5974132e+08    6045.0422    163.56359    2.1077777        26810 
   26820     1165.732 2.5973411e+08 2.5974132e+08    6046.5898    162.64629    2.1088534        26820 
   26830    1160.2483 2.5973411e+08 2.5974132e+08    6048.1184    161.69694    2.1099245        26830 
   26840     1154.874 2.5973412e+08 2.5974132e+08    6049.6268    160.71323    2.1109914        26840 
   26850    1149.5103 2.5973412e+08 2.5974132e+08    6051.1219    159.71699    2.1120599        26850 
   26860     1143.851 2.5973412e+08 2.5974132e+08    6052.6358    158.70284     2.113155        26860 
   26870    1137.7555 2.5973413e+08 2.5974132e+08    6054.1854    157.63391    2.1142918        26870 
   26880    1131.8447 2.5973413e+08 2.5974132e+08    6055.6851     156.4936    2.1154097        26880 
   26890    1126.0565 2.5973414e+08 2.5974132e+08    6057.1479    155.26351    2.1165194        26890 
   26900    1119.6935 2.5973414e+08 2.5974132e+08    6058.6517    153.88628     2.117683        26900 
   26910    1112.4972 2.5973415e+08 2.5974132e+08    6060.3298    152.14751    2.1190131        26910 
   26920    1105.5048 2.5973415e+08 2.5974132e+08    6062.0605     150.0431    2.1204253        26920 
   26930    1098.8777 2.5973416e+08 2.5974132e+08    6063.6487    147.90217    2.1217633        26930 
   26940    1091.7798 2.5973416e+08 2.5974132e+08    6065.2476     145.6271    2.1231576        26940 
   26950    1084.0633 2.5973417e+08 2.5974132e+08    6066.8764    143.19142     2.124635        26950 
   26960    1076.4385 2.5973418e+08 2.5974132e+08    6068.4277    140.75024     2.126105        26960 
   26970    1069.0692 2.5973418e+08 2.5974132e+08    6069.9012    138.31737     2.127569        26970 
   26980    1061.7987 2.5973419e+08 2.5974132e+08    6071.2965    135.89807    2.1290286        26980 
   26990    1054.6614 2.5973419e+08 2.5974132e+08    6072.6124    133.51194    2.1304855        26990 
   27000    1047.9597 2.597342e+08 2.5974132e+08    6073.8471    127.77584    2.1319414        27000 
   27010    1043.5229 2.597342e+08 2.5974132e+08     6074.996    126.09748    2.1333977        27010 
   27020    1039.2026 2.5973421e+08 2.5974132e+08    6076.0545     124.4557    2.1348558        27020 
   27030    1035.0666 2.5973421e+08 2.5974132e+08     6077.019    122.88917    2.1363171        27030 
   27040    1031.1614 2.5973421e+08 2.5974132e+08    6077.8844    121.43082    2.1377818        27040 
   27050    1027.5291 2.5973421e+08 2.5974132e+08    6078.6422    120.15862    2.1392444        27050 
   27060    1024.2105 2.5973422e+08 2.5974132e+08    6079.2861     119.1344    2.1407026        27060 
   27070    1021.1842 2.5973422e+08 2.5974132e+08    6079.8106     118.3879    2.1421563        27070 
   27080    1018.2951 2.5973422e+08 2.5974132e+08    6080.2098     117.9071    2.1436052        27080 
   27090    1015.4687 2.5973422e+08 2.5974132e+08     6080.478    117.66957    2.1450488        27090 
   27100    1012.7972 2.5973423e+08 2.5974132e+08    6080.6102    117.64542    2.1464866        27100 
   27110    1010.3443 2.5973423e+08 2.5974132e+08    6080.6021    117.80549    2.1479182        27110 
   27120    1008.0887 2.5973423e+08 2.5974132e+08    6080.4506    118.11125    2.1493432        27120 
   27130    1005.9419 2.5973423e+08 2.5974132e+08    6080.1538    118.55832    2.1507613        27130 
   27140    1003.6848 2.5973424e+08 2.5974132e+08    6079.7105    119.19061    2.1521728        27140 
   27150    1001.1369 2.5973424e+08 2.5974132e+08    6079.1205    120.06974    2.1535778        27150 
   27160    998.71578 2.5973424e+08 2.5974132e+08    6078.3837    121.09953    2.1549772        27160 
   27170    996.71062 2.5973425e+08 2.5974132e+08    6077.4997     122.1319    2.1563725        27170 
   27180    994.88905 2.5973425e+08 2.5974132e+08    6076.4676    123.14016    2.1577656        27180 
   27190    993.35674 2.5973425e+08 2.5974132e+08    6075.2858    124.09375    2.1591589        27190 
   27200    992.11522 2.5973425e+08 2.5974132e+08     6073.952    124.97058    2.1605546        27200 
   27210    991.04657 2.5973426e+08 2.5974132e+08    6072.4635    125.79187    2.1619545        27210 
   27220    990.16993 2.5973426e+08 2.5974132e+08    6070.8184    126.60619    2.1633599        27220 
   27230    989.53324 2.5973426e+08 2.5974132e+08    6069.0172    127.43753    2.1647697        27230 
   27240    989.07698 2.5973426e+08 2.5974132e+08    6067.0718    128.28616    2.1661757        27240 
   27250    988.72566 2.5973427e+08 2.5974132e+08    6064.9859    129.16027    2.1675772        27250 
   27260    988.48595 2.5973427e+08 2.5974132e+08    6062.7616    130.03563    2.1689751        27260 
   27270    988.43486 2.5973427e+08 2.5974132e+08    6060.4028    130.86323    2.1703686        27270 
   27280    988.61714 2.5973427e+08 2.5974132e+08     6057.923     131.5745    2.1717524        27280 
   27290    988.97502 2.5973428e+08 2.5974132e+08    6055.3281    132.16751    2.1731258        27290 
   27300    989.45424 2.5973428e+08 2.5974132e+08    6052.6217     132.6683    2.1744897        27300 
   27310    990.01227 2.5973428e+08 2.5974132e+08     6049.806    133.10482    2.1758453        27310 
   27320    990.57232 2.5973428e+08 2.5974132e+08    6046.8827    133.52387     2.177194        27320 
   27330    991.07139 2.5973429e+08 2.5974132e+08    6043.8534     133.9743     2.178537        27330 
   27340    991.47313 2.5973429e+08 2.5974132e+08    6040.7213    134.48064    2.1798748        27340 
   27350    991.79024 2.5973429e+08 2.5974132e+08    6037.4962    135.02862    2.1812052        27350 
   27360    992.09819 2.5973429e+08 2.5974132e+08    6034.2014    135.58247    2.1825214        27360 
   27370    992.34615 2.597343e+08 2.5974132e+08    6030.8656    136.13581    2.1838149        27370 
   27380    992.36972 2.597343e+08 2.5974132e+08    6027.5042    136.73329    2.1850835        27380 
   27390    992.17491 2.597343e+08 2.5974132e+08     6024.109    137.42868    2.1863338        27390 
   27400    991.89649 2.5973431e+08 2.5974132e+08    6020.6449    138.24694    2.1875809        27400 
   27410     991.5442 2.5973431e+08 2.5974132e+08    6017.0595    139.17622    2.1888452        27410 
   27420    991.07782 2.5973432e+08 2.5974132e+08    6013.3044    140.19921    2.1901442        27420 
   27430    990.51519 2.5973432e+08 2.5974132e+08    6009.4523    141.29086    2.1914536        27430 
   27440    989.89553 2.5973433e+08 2.5974132e+08     6005.619    142.42716    2.1927366        27440 
   27450    989.23216 2.5973433e+08 2.5974132e+08    6001.8265    143.63387    2.1939891        27450 
   27460    988.54777 2.5973433e+08 2.5974132e+08    5998.0662     144.9401    2.1952169        27460 
   27470    987.85414 2.5973434e+08 2.5974132e+08    5994.3092    146.34214    2.1964318        27470 
   27480    987.05264 2.5973434e+08 2.5974132e+08    5990.5188     147.8552    2.1976477        27480 
   27490    985.96132 2.5973435e+08 2.5974132e+08    5986.6486    149.52612    2.1988807        27490 
   27500    984.61676 2.5973435e+08 2.5974132e+08     5982.658    151.39681    2.2001451        27500 
   27510    983.43404 2.5973436e+08 2.5974132e+08    5978.6264    153.37066    2.2014169        27510 
   27520    982.29026 2.5973436e+08 2.5974132e+08     5974.621    155.38981    2.2026765        27520 
   27530    980.87172 2.5973437e+08 2.5974132e+08    5970.6446    157.49092    2.2039246        27530 
   27540    979.55476 2.5973437e+08 2.5974132e+08    5966.6911    159.61525    2.2051643        27540 
   27550    978.44613 2.5973438e+08 2.5974132e+08    5962.7403    161.73594    2.2064033        27550 
   27560    977.31169 2.5973438e+08 2.5974132e+08    5958.7666    163.89216    2.2076508        27560 
   27570    976.03107 2.5973439e+08 2.5974132e+08    5954.7441    166.10367    2.2089159        27570 
   27580    974.42446 2.597344e+08 2.5974132e+08    5950.6968    168.40993    2.2101924        27580 
   27590    972.49723 2.597344e+08 2.5974132e+08    5946.6781    170.82307    2.2114647        27590 
   27600     970.7502 2.5973441e+08 2.5974132e+08    5942.6862    173.26649    2.2127343        27600 
   27610    969.09789 2.5973441e+08 2.5974132e+08    5938.7217    175.67575    2.2140019        27610 
   27620    967.41743 2.5973442e+08 2.5974132e+08    5934.8134    178.04443    2.2152594        27620 
   27630    965.93195 2.5973442e+08 2.5974132e+08    5930.9265    180.39172    2.2165188        27630 
   27640     964.4215 2.5973443e+08 2.5974132e+08    5927.0767    182.71181     2.217776        27640 
   27650    962.45611 2.5973444e+08 2.5974132e+08     5923.272    185.07049    2.2190292        27650 
   27660    960.18511 2.5973444e+08 2.5974132e+08     5919.515    187.48212    2.2202787        27660 
   27670    958.01859 2.5973445e+08 2.5974132e+08     5915.807    189.93095    2.2215247        27670 
   27680    955.59952 2.5973445e+08 2.5974132e+08    5912.1618     192.3475    2.2227636        27680 
   27690    953.60978 2.5973446e+08 2.5974132e+08    5908.6009    194.62947    2.2239888        27690 
   27700    952.11172 2.5973446e+08 2.5974132e+08    5905.1192    196.77028    2.2252025        27700 
   27710    950.05319 2.5973447e+08 2.5974132e+08    5901.7115     198.8907    2.2264073        27710 
   27720    948.12885 2.5973447e+08 2.5974132e+08    5898.4211    200.83814    2.2275879        27720 
   27730    947.41851 2.5973448e+08 2.5974132e+08    5895.5921    202.28387    2.2286179        27730 
   27740    946.95703 2.5973448e+08 2.5974132e+08    5893.0366    203.45513    2.2295612        27740 
   27750    946.23399 2.5973448e+08 2.5974132e+08    5890.5004     204.5803    2.2305103        27750 
   27760    945.26972 2.5973449e+08 2.5974132e+08    5887.8026    205.78493     2.231535        27760 
   27770    944.27273 2.5973449e+08 2.5974132e+08    5885.0791    207.01944    2.2325866        27770 
   27780    943.41359 2.597345e+08 2.5974132e+08    5882.3928    208.23664    2.2336417        27780 
   27790    942.78551 2.597345e+08 2.5974132e+08    5879.6902    209.43996    2.2347226        27790 
   27800    942.39656 2.597345e+08 2.5974132e+08    5876.9799    210.58116    2.2358276        27800 
   27810    942.19088 2.597345e+08 2.5974132e+08    5874.3191    211.61984    2.2369345        27810 
   27820    942.09255 2.5973451e+08 2.5974132e+08    5871.7509    212.53779    2.2380253        27820 
   27830    942.02174 2.5973451e+08 2.5974132e+08    5869.2702    213.33994    2.2391015        27830 
   27840    941.94052 2.5973451e+08 2.5974132e+08    5866.8457    214.03558    2.2401764        27840 
   27850    941.85791 2.5973451e+08 2.5974132e+08    5864.4448    214.62271    2.2412649        27850 
   27860    941.75142 2.5973452e+08 2.5974132e+08     5862.045    215.11235    2.2423785        27860 
   27870    941.50116 2.5973452e+08 2.5974132e+08    5859.6397    215.51393    2.2435219        27870 
   27880    940.93793 2.5973452e+08 2.5974132e+08    5857.2656    215.85039    2.2446788        27880 
   27890     939.8732 2.5973453e+08 2.5974132e+08    5854.9389    216.14198    2.2458413        27890 
   27900    938.12403 2.5973453e+08 2.5974132e+08    5852.5906    216.40227    2.2470451        27900 
   27910    935.66252 2.5973453e+08 2.5974132e+08    5850.2738    216.64013    2.2482643        27910 
   27920    932.50998 2.5973454e+08 2.5974132e+08    5848.0237    216.85415    2.2494804        27920 
   27930     928.0602 2.5973455e+08 2.5974132e+08    5845.8631    217.13665    2.2506804        27930 
   27940    921.76367 2.5973456e+08 2.5974132e+08    5843.8305     217.5246    2.2518414        27940 
   27950    914.84058 2.5973456e+08 2.5974132e+08    5841.8635    217.75946    2.2530003        27950 
   27960    909.17153 2.5973457e+08 2.5974132e+08    5839.9056    217.69514    2.2541966        27960 
   27970    905.25279 2.5973458e+08 2.5974132e+08     5837.983    217.50805    2.2554206        27970 
   27980    900.71808 2.5973458e+08 2.5974132e+08    5836.1401     217.4266    2.2566449        27980 
   27990    897.70167 2.5973459e+08 2.5974132e+08    5834.4353    217.09979    2.2578265        27990 
   28000     895.9677 2.5973459e+08 2.5974132e+08    5832.8224    213.49297     2.258992        28000 
   28010    896.53182 2.5973459e+08 2.5974132e+08    5831.2458    212.63583    2.2601798        28010 
   28020    897.26587 2.5973459e+08 2.5974132e+08    5829.6543    211.38519    2.2614328        28020 
   28030    898.23957 2.5973459e+08 2.5974132e+08    5828.1688    209.89766    2.2626585        28030 
   28040    900.57576 2.5973459e+08 2.5974132e+08    5826.8135    208.01812    2.2638319        28040 
   28050    902.74375 2.5973459e+08 2.5974132e+08    5825.5389    205.78168    2.2649913        28050 
   28060    904.53688 2.5973459e+08 2.5974132e+08    5824.3277    203.52269    2.2661513        28060 
   28070    906.11599 2.5973459e+08 2.5974132e+08    5823.1526    201.28386    2.2673386        28070 
   28080    907.87968 2.5973459e+08 2.5974132e+08    5822.0534    199.03514    2.2685124        28080 
   28090    909.75744 2.5973459e+08 2.5974132e+08    5821.0896     196.9599    2.2695975        28090 
   28100    911.27343 2.5973459e+08 2.5974132e+08    5820.1886    195.05732    2.2706637        28100 
   28110     912.2898 2.5973459e+08 2.5974132e+08    5819.3322     193.3391    2.2717268        28110 
   28120    913.07591 2.5973459e+08 2.5974132e+08    5818.5084    191.70547     2.272797        28120 
   28130    914.00849 2.5973459e+08 2.5974132e+08    5817.6848    189.95502    2.2739147        28130 
   28140    915.16514 2.5973459e+08 2.5974132e+08    5816.8574    188.00954    2.2750848        28140 
   28150    916.39176 2.5973459e+08 2.5974132e+08    5816.0876    186.04389    2.2762139        28150 
   28160     917.7154 2.5973459e+08 2.5974132e+08    5815.3519    184.01866    2.2773255        28160 
   28170    918.97126 2.5973459e+08 2.5974132e+08    5814.6234     181.8968    2.2784524        28170 
   28180    920.13109 2.5973459e+08 2.5974132e+08    5813.8736    179.67927    2.2796322        28180 
   28190    921.24062 2.5973459e+08 2.5974132e+08    5813.1192    177.47956    2.2808314        28190 
   28200    922.25522 2.5973459e+08 2.5974132e+08    5812.4044    175.42653    2.2819708        28200 
   28210    923.22918 2.5973459e+08 2.5974132e+08    5811.7009    173.40111    2.2830877        28210 
   28220    924.18847 2.5973459e+08 2.5974132e+08    5810.9846    171.27871    2.2842142        28220 
   28230    925.28448 2.5973459e+08 2.5974132e+08    5810.2291    168.97221    2.2853851        28230 
   28240     926.5081 2.5973458e+08 2.5974132e+08     5809.451    166.57038    2.2865679        28240 
   28250    927.59325 2.5973458e+08 2.5974132e+08     5808.703    164.32743    2.2876799        28250 
   28260    928.63727 2.5973458e+08 2.5974132e+08    5807.9597    162.19288    2.2887586        28260 
   28270    929.75247 2.5973458e+08 2.5974132e+08    5807.1982    160.07711    2.2898351        28270 
   28280    930.88114 2.5973458e+08 2.5974132e+08    5806.3944     157.9024    2.2909396        28280 
   28290    931.95477 2.5973458e+08 2.5974132e+08    5805.5158    155.60712    2.2921089        28290 
   28300    933.02091 2.5973458e+08 2.5974132e+08    5804.6203    153.36729    2.2932605        28300 
   28310    934.20188 2.5973458e+08 2.5974132e+08     5803.742    151.26791     2.294351        28310 
   28320    935.46476 2.5973458e+08 2.5974132e+08    5802.8535    149.24636    2.2954164        28320 
   28330    936.75557 2.5973458e+08 2.5974132e+08    5801.9298    147.26196    2.2964854        28330 
   28340    938.08703 2.5973458e+08 2.5974132e+08    5800.9414    145.26833     2.297588        28340 
   28350    939.46226 2.5973458e+08 2.5974132e+08    5799.8596    143.22489    2.2987491        28350 
   28360    940.75996 2.5973458e+08 2.5974132e+08    5798.7733    141.29872    2.2998703        28360 
   28370    942.01121 2.5973458e+08 2.5974132e+08    5797.6852    139.48457    2.3009521        28370 
   28380    943.24483 2.5973458e+08 2.5974132e+08    5796.5662    137.73986    2.3020247        28380 
   28390    944.46411 2.5973458e+08 2.5974132e+08    5795.3861    136.03063    2.3031156        28390 
   28400    945.71202 2.5973458e+08 2.5974132e+08    5794.1063    134.31714     2.304256        28400 
   28410    946.95069 2.5973458e+08 2.5974132e+08    5792.8056    132.70216    2.3053733        28410 
   28420    948.16148 2.5973458e+08 2.5974132e+08    5791.5246    131.21994    2.3064357        28420 
   28430    949.37685 2.5973458e+08 2.5974132e+08    5790.2281    129.81925    2.3074757        28430 
   28440    950.62178 2.5973458e+08 2.5974132e+08     5788.883    128.47642    2.3085194        28440 
   28450    951.87951 2.5973458e+08 2.5974132e+08    5787.4507    127.19219    2.3095939        28450 
   28460    953.11549 2.5973458e+08 2.5974132e+08     5785.886     125.9769     2.310727        28460 
   28470    954.35388 2.5973458e+08 2.5974132e+08    5784.3179    124.90647    2.3118222        28470 
   28480    955.74635 2.5973458e+08 2.5974132e+08    5782.7703    123.93075    2.3128657        28480 
   28490    957.10734 2.5973458e+08 2.5974132e+08    5781.2009    123.00903    2.3138879        28490 
   28500    958.33724 2.5973458e+08 2.5974132e+08    5779.5703    122.13709    2.3149136        28500 
   28510    959.61495 2.5973458e+08 2.5974132e+08    5777.8319    121.32076    2.3159689        28510 
   28520    961.05023 2.5973458e+08 2.5974132e+08    5775.9282    120.57915    2.3170816        28520 
   28530    962.51761 2.5973458e+08 2.5974132e+08    5773.9931    119.97389    2.3181698        28530 
   28540    964.01439 2.5973458e+08 2.5974132e+08    5772.0629    119.46811    2.3192152        28540 
   28550    965.60231 2.5973459e+08 2.5974132e+08    5770.0897    119.01809    2.3202455        28550 
   28560     967.2748 2.5973459e+08 2.5974132e+08    5768.0258    118.60881    2.3212845        28560 
   28570     969.0373 2.5973459e+08 2.5974132e+08    5765.8124    118.24675    2.3223583        28570 
   28580    970.87202 2.5973459e+08 2.5974132e+08    5763.4593    117.93098    2.3234575        28580 
   28590    972.61677 2.5973459e+08 2.5974132e+08    5761.1413    117.66392    2.3245012        28590 
   28600    974.33519 2.5973459e+08 2.5974132e+08    5758.8135    117.41874    2.3255134        28600 
   28610    976.11818 2.5973459e+08 2.5974132e+08    5756.4223     117.1951    2.3265187        28610 
   28620    978.02848 2.5973459e+08 2.5974132e+08     5753.912     117.0114    2.3275398        28620 
   28630    980.08445 2.5973459e+08 2.5974132e+08      5751.21     116.8762    2.3286028        28630 
   28640    982.19046 2.5973459e+08 2.5974132e+08    5748.3501    116.80499    2.3296907        28640 
   28650    984.16616 2.5973459e+08 2.5974132e+08    5745.5608    116.80534    2.3307183        28650 
   28660     986.0868 2.5973459e+08 2.5974132e+08    5742.7833     116.8611    2.3317113        28660 
   28670    988.02504 2.5973459e+08 2.5974132e+08    5739.9558    116.96167    2.3326939        28670 
   28680    990.04185 2.5973459e+08 2.5974132e+08    5737.0168    117.10266    2.3336874        28680 
   28690    992.19027 2.5973459e+08 2.5974132e+08    5733.8902    117.28968    2.3347156        28690 
   28700    994.48329 2.597346e+08 2.5974132e+08    5730.5214    117.52808    2.3357932        28700 
   28710    996.70365 2.597346e+08 2.5974132e+08    5727.1881    117.80123    2.3368309        28710 
   28720     998.8471 2.597346e+08 2.5974132e+08    5723.8864    118.10773    2.3378331        28720 
   28730     1000.956 2.597346e+08 2.5974132e+08    5720.5452     118.4468    2.3388234        28730 
   28740    1003.0632 2.597346e+08 2.5974132e+08    5717.0954    118.82258    2.3398226        28740 
   28750    1005.2167 2.597346e+08 2.5974132e+08    5713.4549    119.24799    2.3408533        28750 
   28760    1007.4433 2.597346e+08 2.5974132e+08    5709.6241    119.72113    2.3419137        28760 
   28770    1009.6026 2.5973461e+08 2.5974132e+08     5705.888    120.20662     2.342926        28770 
   28780    1011.7054 2.5973461e+08 2.5974132e+08    5702.1923    120.72233    2.3439076        28780 
   28790    1013.7635 2.5973461e+08 2.5974132e+08    5698.4602    121.29274    2.3448807        28790 
   28800     1015.805 2.5973461e+08 2.5974132e+08    5694.6176     121.9344    2.3458648        28800 
   28810    1017.8789 2.5973461e+08 2.5974132e+08    5690.5754    122.66616    2.3468822        28810 
   28820    1019.9947 2.5973461e+08 2.5974132e+08    5686.3201    123.50282    2.3479349        28820 
   28830    1021.9785 2.5973462e+08 2.5974132e+08    5682.2059    124.37708    2.3489364        28830 
   28840    1023.8519 2.5973462e+08 2.5974132e+08    5678.1857    125.29036    2.3499006        28840 
   28850    1025.6513 2.5973462e+08 2.5974132e+08    5674.1738     126.2594    2.3508497        28850 
   28860    1027.4037 2.5973462e+08 2.5974132e+08    5670.0931    127.30837    2.3518028        28860 
   28870    1029.1333 2.5973463e+08 2.5974132e+08    5665.8583    128.46896    2.3527796        28870 
   28880    1030.8599 2.5973463e+08 2.5974132e+08    5661.3614    129.79299    2.3538042        28880 
   28890     1032.478 2.5973463e+08 2.5974132e+08    5656.8138    131.23404    2.3548283        28890 
   28900    1033.9225 2.5973463e+08 2.5974132e+08    5652.4192     132.7246    2.3558073        28900 
   28910    1035.2589 2.5973464e+08 2.5974132e+08    5648.0809    134.28413    2.3567642        28910 
   28920    1036.5381 2.5973464e+08 2.5974132e+08    5643.7159    135.92702    2.3577182        28920 
   28930    1037.7644 2.5973464e+08 2.5974132e+08    5639.2416     137.6783    2.3586877        28930 
   28940    1038.9098 2.5973465e+08 2.5974132e+08     5634.559    139.58492    2.3596941        28940 
   28950    1039.9441 2.5973465e+08 2.5974132e+08    5629.8019    141.59482    2.3607085        28950 
   28960    1040.9146 2.5973465e+08 2.5974132e+08    5625.2217    143.57565    2.3616784        28960 
   28970    1041.8791 2.5973466e+08 2.5974132e+08    5620.7212    145.55342    2.3626254        28970 
   28980    1042.7884 2.5973466e+08 2.5974132e+08    5616.2154    147.57104    2.3635683        28980 
   28990    1043.6109 2.5973467e+08 2.5974132e+08    5611.6228    149.67378    2.3645244        28990 
   29000    1044.3287 2.5973467e+08 2.5974132e+08    5606.8482    152.86463    2.3655138        29000 
   29010    1044.5046 2.5973467e+08 2.5974132e+08    5601.9422    155.15842    2.3665261        29010 
   29020    1044.4214 2.5973468e+08 2.5974132e+08    5597.2612    157.45401    2.3674886        29020 
   29030    1044.1319 2.5973468e+08 2.5974132e+08    5592.7216    159.77434    2.3684192        29030 
   29040    1043.9684 2.5973469e+08 2.5974132e+08    5588.2326    162.12788    2.3693372        29040 
   29050    1043.8898 2.5973469e+08 2.5974132e+08    5583.7147    164.56083    2.3702593        29050 
   29060    1043.4505 2.597347e+08 2.5974132e+08    5579.0837    167.13972     2.371203        29060 
   29070    1042.7761 2.597347e+08 2.5974132e+08    5574.2378      169.893    2.3721892        29070 
   29080    1042.4145 2.5973471e+08 2.5974132e+08     5569.355    172.64466    2.3731822        29080 
   29090     1042.179 2.5973471e+08 2.5974132e+08    5564.6901    175.28552    2.3741305        29090 
   29100    1041.7946 2.5973472e+08 2.5974132e+08     5560.142    177.92317    2.3750551        29100 
   29110    1041.3063 2.5973472e+08 2.5974132e+08     5555.627    180.60144    2.3759734        29110 
   29120    1040.8781 2.5973473e+08 2.5974132e+08    5551.0681    183.33453    2.3769015        29120 
   29130    1040.5921 2.5973473e+08 2.5974132e+08    5546.3799    186.16585     2.377857        29130 
   29140    1040.3382 2.5973474e+08 2.5974132e+08    5541.5369    189.12354    2.3788456        29140 
   29150    1039.9978 2.5973474e+08 2.5974132e+08     5536.877    191.99668    2.3797989        29150 
   29160    1039.5702 2.5973475e+08 2.5974132e+08     5532.369    194.79785    2.3807232        29160 
   29170    1039.1313 2.5973475e+08 2.5974132e+08    5527.9283    197.57584    2.3816362        29170 
   29180    1038.7172 2.5973476e+08 2.5974132e+08     5523.481     200.3643    2.3825532        29180 
   29190    1038.2723 2.5973476e+08 2.5974132e+08    5518.9507    203.20969    2.3834906        29190 
   29200    1037.6788 2.5973477e+08 2.5974132e+08    5514.2541    206.16498    2.3844662        29200 
   29210    1036.9006 2.5973477e+08 2.5974132e+08    5509.6651    209.05447    2.3854235        29210 
   29220    1035.9311 2.5973478e+08 2.5974132e+08    5505.2911     211.8333    2.3863401        29220 
   29230    1034.6903 2.5973479e+08 2.5974132e+08    5501.0401    214.59406    2.3872353        29230 
   29240     1032.987 2.5973479e+08 2.5974132e+08    5496.8376    217.40777    2.3881249        29240 
   29250    1030.9697 2.597348e+08 2.5974132e+08    5492.6161    220.29958    2.3890235        29250 
   29260    1029.1525 2.597348e+08 2.5974132e+08    5488.3025     223.2544    2.3899474        29260 
   29270    1027.2377 2.5973481e+08 2.5974132e+08    5483.8238    226.34903    2.3909134        29270 
   29280    1024.9884 2.5973482e+08 2.5974132e+08     5479.471    229.41901    2.3918593        29280 
   29290    1022.9793 2.5973482e+08 2.5974132e+08    5475.3203    232.33239    2.3927686        29290 
   29300    1021.4293 2.5973483e+08 2.5974132e+08    5471.2896    235.10021    2.3936589        29300 
   29310    1020.1391 2.5973483e+08 2.5974132e+08    5467.3114     237.7769    2.3945453        29310 
   29320    1018.9353 2.5973484e+08 2.5974132e+08    5463.3242    240.41703    2.3954419        29320 
   29330    1017.7689 2.5973484e+08 2.5974132e+08    5459.2616    243.07185    2.3963648        29330 
   29340    1016.6687 2.5973485e+08 2.5974132e+08    5455.0985    245.74477    2.3973208        29340 
   29350    1015.6768 2.5973485e+08 2.5974132e+08    5451.1164    248.25322     2.398246        29350 
   29360    1014.7176 2.5973486e+08 2.5974132e+08    5447.3008    250.61867    2.3991431        29360 
   29370    1013.7684 2.5973486e+08 2.5974132e+08    5443.5832    252.87859    2.4000279        29370 
   29380    1012.8482 2.5973487e+08 2.5974132e+08    5439.9066    255.05442    2.4009142        29380 
   29390    1011.9743 2.5973487e+08 2.5974132e+08    5436.2157    257.17154     2.401816        29390 
   29400    1011.1532 2.5973488e+08 2.5974132e+08    5432.4503    259.25825    2.4027495        29400 
   29410    1010.4219 2.5973488e+08 2.5974132e+08    5428.7261    261.23981    2.4036873        29410 
   29420    1009.8047 2.5973489e+08 2.5974132e+08    5425.2215    263.01834     2.404584        29420 
   29430    1009.2545 2.5973489e+08 2.5974132e+08    5421.8641    264.64117    2.4054569        29430 
   29440    1008.7283 2.5973489e+08 2.5974132e+08    5418.5955    266.14683    2.4063208        29440 
   29450    1008.1985 2.597349e+08 2.5974132e+08    5415.3669    267.56354    2.4071886        29450 
   29460    1007.6493 2.597349e+08 2.5974132e+08    5412.1301    268.92381    2.4080742        29460 
   29470    1007.0771 2.5973491e+08 2.5974132e+08    5408.8329    270.25392    2.4089936        29470 
   29480    1006.5042 2.5973491e+08 2.5974132e+08    5405.5553    271.52319    2.4099263        29480 
   29490    1005.9589 2.5973491e+08 2.5974132e+08    5402.4844      272.671    2.4108183        29490 
   29500     1005.411 2.5973492e+08 2.5974132e+08    5399.5598    273.73756    2.4116857        29500 
   29510    1004.8272 2.5973492e+08 2.5974132e+08    5396.7306    274.75445    2.4125427        29510 
   29520    1004.1799 2.5973492e+08 2.5974132e+08    5393.9551    275.74373    2.4134021        29520 
   29530    1003.4472 2.5973493e+08 2.5974132e+08     5391.194    276.72321    2.4142769        29530 
   29540     1002.605 2.5973493e+08 2.5974132e+08    5388.4065    277.70996    2.4151821        29540 
   29550    1001.6523 2.5973493e+08 2.5974132e+08    5385.6402    278.68386    2.4161046        29550 
   29560    1000.6434 2.5973494e+08 2.5974132e+08    5383.0527    279.58872    2.4169917        29560 
   29570    999.58085 2.5973494e+08 2.5974132e+08    5380.5996    280.44066    2.4178566        29570 
   29580    998.48065 2.5973494e+08 2.5974132e+08    5378.2404    281.25283    2.4187129        29580 
   29590    997.37219 2.5973495e+08 2.5974132e+08    5375.9426    282.03327    2.4195726        29590 
   29600    996.27908 2.5973495e+08 2.5974132e+08    5373.6764    282.78573    2.4204486        29600 
   29610    995.19323 2.5973495e+08 2.5974132e+08    5371.4116    283.51844    2.4213553        29610 
   29620    994.12375 2.5973496e+08 2.5974132e+08    5369.2363    284.20873    2.4222597        29620 
   29630    993.07013 2.5973496e+08 2.5974132e+08     5367.228    284.83929    2.4231279        29630 
   29640    991.99576 2.5973496e+08 2.5974132e+08    5365.3442    285.43021    2.4239752        29640 
   29650    990.88755 2.5973497e+08 2.5974132e+08    5363.5527    285.99322    2.4248147        29650 
   29660    989.74478 2.5973497e+08 2.5974132e+08    5361.8285    286.53193     2.425658        29660 
   29670    988.57029 2.5973497e+08 2.5974132e+08    5360.1494    287.04943    2.4265173        29670 
   29680    987.36293 2.5973498e+08 2.5974132e+08     5358.494    287.54306    2.4274067        29680 
   29690    986.15782 2.5973498e+08 2.5974132e+08    5356.8964    287.98944    2.4283112        29690 
   29700    985.03237 2.5973498e+08 2.5974132e+08    5355.4467     288.3532    2.4291779        29700 
   29710    983.97339 2.5973498e+08 2.5974132e+08    5354.1136    288.63535    2.4300201        29710 
   29720    982.98007 2.5973499e+08 2.5974132e+08    5352.8715    288.83667    2.4308508        29720 
   29730    982.05502 2.5973499e+08 2.5974132e+08    5351.7012    288.96133    2.4316815        29730 
   29740    981.18632 2.5973499e+08 2.5974132e+08    5350.5877    289.01109    2.4325237        29740 
   29750    980.35238 2.5973499e+08 2.5974132e+08     5349.518    288.99153    2.4333905        29750 
   29760    979.55802 2.5973499e+08 2.5974132e+08    5348.4874    288.89295    2.4342918        29760 
   29770    978.92153 2.5973499e+08 2.5974132e+08    5347.5545     288.7036    2.4351782        29770 
   29780    978.44707  2.59735e+08 2.5974132e+08    5346.7261    288.41651    2.4360373        29780 
   29790    978.02791  2.59735e+08 2.5974132e+08    5345.9874    288.04992    2.4368778        29790 
   29800    977.65922  2.59735e+08 2.5974132e+08    5345.3232     287.6099    2.4377125        29800 
   29810    977.42579  2.59735e+08 2.5974132e+08    5344.7186    287.09881    2.4385609        29810 
   29820    977.35275  2.59735e+08 2.5974132e+08    5344.1637     286.4833    2.4394444        29820 
   29830    977.42738  2.59735e+08 2.5974132e+08    5343.6608     285.7207    2.4403753        29830 
   29840    977.62792  2.59735e+08 2.5974132e+08    5343.2499      284.844    2.4412837        29840 
   29850    977.91967  2.59735e+08 2.5974132e+08    5342.9286    283.88254    2.4421573        29850 
   29860    978.29372  2.59735e+08 2.5974132e+08    5342.6849    282.84523    2.4430056        29860 
   29870    978.74164  2.59735e+08 2.5974132e+08    5342.5107    281.74134    2.4438373        29870 
   29880    979.26264  2.59735e+08 2.5974132e+08    5342.4002    280.56229    2.4446626        29880 
   29890    979.86457  2.59735e+08 2.5974132e+08    5342.3508    279.29405    2.4454938        29890 
   29900    980.56438  2.59735e+08 2.5974132e+08    5342.3635    277.91422    2.4463455        29900 
   29910    981.38259  2.59735e+08 2.5974132e+08    5342.4439    276.38663    2.4472359        29910 
   29920    982.31711  2.59735e+08 2.5974132e+08    5342.5987    274.70897    2.4481618        29920 
   29930    983.28835 2.5973499e+08 2.5974132e+08    5342.8158    272.99381     2.449058        29930 
   29940    984.29831 2.5973499e+08 2.5974132e+08    5343.0898    271.23076     2.449933        29940 
   29950    985.36738 2.5973499e+08 2.5974132e+08      5343.42    269.40069    2.4507993        29950 
   29960    986.51729 2.5973499e+08 2.5974132e+08     5343.808    267.47973    2.4516676        29960 
   29970    987.76534 2.5973499e+08 2.5974132e+08    5344.2594    265.44388    2.4525499        29970 
   29980     989.1152 2.5973499e+08 2.5974132e+08    5344.7814    263.26534    2.4534565        29980 
   29990    990.47698 2.5973499e+08 2.5974132e+08    5345.3458    261.06601    2.4543406        29990 
   30000      991.761 2.5973498e+08 2.5974132e+08    5345.9431    262.74389     2.455197        30000 
   30010    991.98081 2.5973498e+08 2.5974132e+08    5346.5803    260.03685    2.4560405        30010 
   30020     992.4022 2.5973498e+08 2.5974132e+08    5347.2647     257.4751    2.4568828        30020 
   30030    992.94832 2.5973498e+08 2.5974132e+08    5348.0045    254.95278    2.4577349        30030 
   30040    993.59157 2.5973498e+08 2.5974132e+08    5348.8114    252.41229     2.458609        30040 
   30050    994.32527 2.5973498e+08 2.5974132e+08     5349.699    249.80508    2.4595168        30050 
   30060    995.08742 2.5973498e+08 2.5974132e+08    5350.6086    247.28808    2.4603995        30060 
   30070    995.84736 2.5973497e+08 2.5974132e+08    5351.5191    244.88923    2.4612433        30070 
   30080    996.60231 2.5973497e+08 2.5974132e+08    5352.4412    242.55209    2.4620636        30080 
   30090    997.34774 2.5973497e+08 2.5974132e+08    5353.3851    240.23825     2.462873        30090 
   30100    997.92779 2.5973497e+08 2.5974132e+08    5354.3665    237.93786    2.4636868        30100 
   30110    997.90798 2.5973497e+08 2.5974132e+08    5355.4397     235.5731    2.4645486        30110 
   30120    996.99641 2.5973497e+08 2.5974132e+08    5356.7519    232.87401    2.4655682        30120 
   30130    996.84584 2.5973497e+08 2.5974132e+08     5358.722    228.80224    2.4670403        30130 
   30140    997.90253 2.5973496e+08 2.5974132e+08    5361.2074    223.48397     2.468817        30140 
   30150     998.4466 2.5973496e+08 2.5974132e+08    5363.8217    218.04169    2.4706111        30150 
   30160     999.0039 2.5973496e+08 2.5974132e+08    5366.5552    212.46773     2.472424        30160 
   30170    999.18892 2.5973495e+08 2.5974132e+08    5369.3936    206.77416     2.474255        30170 
   30180    999.08199 2.5973495e+08 2.5974132e+08    5372.3204    200.98138    2.4761018        30180 
   30190    998.66875 2.5973495e+08 2.5974132e+08    5375.3119    195.08624    2.4779579        30190 
   30200    997.94002 2.5973494e+08 2.5974132e+08    5378.3486     189.1673    2.4798197        30200 
   30210    997.02026 2.5973494e+08 2.5974132e+08    5381.4057    183.31178    2.4816799        30210 
   30220    995.89974 2.5973494e+08 2.5974132e+08    5384.4667     177.5407    2.4835362        30220 
   30230    994.60225 2.5973494e+08 2.5974132e+08     5387.527    171.88073    2.4853935        30230 
   30240    993.11815 2.5973494e+08 2.5974132e+08    5390.5841    166.37641    2.4872582        30240 
   30250    991.44234 2.5973494e+08 2.5974132e+08     5393.626    161.07769    2.4891313        30250 
   30260    989.58216 2.5973493e+08 2.5974132e+08    5396.6292    156.02728    2.4910074        30260 
   30270    987.56077 2.5973493e+08 2.5974132e+08    5399.5697    151.23556    2.4928806        30270 
   30280    985.41261 2.5973493e+08 2.5974132e+08    5402.4339    146.66769    2.4947521        30280 
   30290    983.15938 2.5973493e+08 2.5974132e+08    5405.2149    142.29447    2.4966275        30290 
   30300    980.79532 2.5973493e+08 2.5974132e+08     5407.903    138.10145     2.498512        30300 
   30310    978.30597 2.5973493e+08 2.5974132e+08     5410.482    134.10397    2.5004068        30310 
   30320    975.69742 2.5973493e+08 2.5974132e+08    5412.9322    130.32812    2.5023105        30320 
   30330    972.98828 2.5973493e+08 2.5974132e+08    5415.2345     126.7964    2.5042218        30330 
   30340    970.20898 2.5973493e+08 2.5974132e+08    5417.3719    123.53076      2.50614        30340 
   30350    967.40819 2.5973493e+08 2.5974132e+08    5419.3282    120.55486    2.5080648        30350 
   30360    964.63902 2.5973494e+08 2.5974132e+08    5421.0868    117.87481    2.5099947        30360 
   30370    961.94424 2.5973494e+08 2.5974132e+08    5422.6316    115.48525    2.5119279        30370 
   30380    959.35963 2.5973494e+08 2.5974132e+08    5423.9484    113.37139    2.5138631        30380 
   30390    956.90398 2.5973494e+08 2.5974132e+08    5425.0248    111.50445    2.5157997        30390 
   30400    954.58429 2.5973494e+08 2.5974132e+08    5425.8504    109.85194     2.517738        30400 
   30410    952.41173 2.5973494e+08 2.5974132e+08    5426.4166    108.40763    2.5196789        30410 
   30420    950.39825 2.5973494e+08 2.5974132e+08    5426.7168    107.17466    2.5216238        30420 
   30430    948.53943 2.5973495e+08 2.5974132e+08    5426.7451    106.16587     2.523574        30430 
   30440    946.82268 2.5973495e+08 2.5974132e+08     5426.496    105.39527    2.5255307        30440 
   30450    945.24172 2.5973495e+08 2.5974132e+08    5425.9653    104.87689    2.5274934        30450 
   30460    943.80567 2.5973495e+08 2.5974132e+08    5425.1492    104.62165    2.5294619        30460 
   30470    942.51641 2.5973495e+08 2.5974132e+08    5424.0436    104.63628    2.5314368        30470 
   30480    941.35002 2.5973496e+08 2.5974132e+08    5422.6443    104.91934    2.5334181        30480 
   30490    940.25364 2.5973496e+08 2.5974132e+08    5420.9484    105.45949    2.5354037        30490 
   30500    939.18804 2.5973496e+08 2.5974132e+08    5418.9519     106.2338    2.5373937        30500 
   30510    938.20177 2.5973497e+08 2.5974132e+08    5416.6514    107.22144    2.5393876        30510 
   30520    937.38894 2.5973497e+08 2.5974132e+08    5414.0443    108.39021    2.5413851        30520 
   30530    936.73981 2.5973497e+08 2.5974132e+08    5411.1286    109.71833     2.543386        30530 
   30540    936.17967 2.5973498e+08 2.5974132e+08    5407.9028     111.2058    2.5453904        30540 
   30550    935.63341 2.5973498e+08 2.5974132e+08      5404.37    112.88047    2.5473962        30550 
   30560    935.13722 2.5973498e+08 2.5974132e+08    5400.7943    114.61927    2.5492715        30560 
   30570    934.71017 2.5973499e+08 2.5974132e+08    5397.1298    116.37564    2.5510655        30570 
   30580    934.30037 2.5973499e+08 2.5974132e+08    5392.8402    118.39444     2.553034        30580 
   30590    934.25667  2.59735e+08 2.5974132e+08    5388.1423    120.59149    2.5550585        30590 
   30600    934.33524  2.59735e+08 2.5974132e+08    5383.2762    122.86286    2.5570383        30600 
   30610    934.28479 2.5973501e+08 2.5974132e+08    5378.0992    125.33185    2.5590377        30610 
   30620    934.32655 2.5973501e+08 2.5974132e+08     5372.578    128.05173    2.5610701        30620 
   30630     934.7324 2.5973502e+08 2.5974132e+08    5366.8043    130.85747    2.5631042        30630 
   30640    935.37025 2.5973502e+08 2.5974132e+08    5360.8184    133.73421    2.5651314        30640 
   30650    936.00708 2.5973503e+08 2.5974132e+08    5354.8307    136.67156    2.5670902        30650 
   30660    936.64902 2.5973504e+08 2.5974132e+08    5348.4684    139.91755    2.5691086        30660 
   30670    937.24126 2.5973504e+08 2.5974132e+08    5341.8525    143.41261    2.5711509        30670 
   30680    937.71332 2.5973505e+08 2.5974132e+08    5335.0662    147.09618    2.5731971        30680 
   30690     937.9448 2.5973505e+08 2.5974132e+08    5328.1288    150.99301    2.5752483        30690 
   30700    937.88967 2.5973506e+08 2.5974132e+08    5321.0611    155.17221    2.5773057        30700 
   30710    937.55829 2.5973507e+08 2.5974132e+08    5313.8843    159.67127    2.5793707        30710 
   30720    936.92813 2.5973508e+08 2.5974132e+08    5306.6208    164.46708    2.5814443        30720 
   30730    936.03347 2.5973509e+08 2.5974132e+08    5299.2946    169.52369    2.5835277        30730 
   30740    934.77099 2.5973509e+08 2.5974132e+08    5291.9315    174.84127    2.5856211        30740 
   30750    933.18041 2.597351e+08 2.5974132e+08    5284.5601    180.33741    2.5877246        30750 
   30760    931.21427 2.5973511e+08 2.5974132e+08    5277.2053    185.94314    2.5898391        30760 
   30770    928.82292 2.5973512e+08 2.5974132e+08    5269.8907    191.67155     2.591966        30770 
   30780    926.01616 2.5973513e+08 2.5974132e+08    5262.6443    197.56091    2.5941054        30780 
   30790    922.86116 2.5973514e+08 2.5974132e+08    5255.5014    203.57541    2.5962554        30790 
   30800    919.35537 2.5973515e+08 2.5974132e+08    5248.4909    209.65282    2.5984154        30800 
   30810    915.43834 2.5973516e+08 2.5974132e+08     5241.636    215.77249    2.6005869        30810 
   30820    911.16857 2.5973517e+08 2.5974132e+08    5234.9614    221.91921     2.602771        30820 
   30830    906.60412 2.5973519e+08 2.5974132e+08    5228.4922    228.06424     2.604969        30830 
   30840    901.81485 2.597352e+08 2.5974132e+08    5222.2548    234.16543     2.607182        30840 
   30850     896.8764 2.5973521e+08 2.5974132e+08    5216.2795    240.14819    2.6094104        30850 
   30860    891.84536 2.5973522e+08 2.5974132e+08    5210.5978    245.93194    2.6116543        30860 
   30870    886.80193 2.5973523e+08 2.5974132e+08    5205.2453    251.41383    2.6139125        30870 
   30880    881.84808 2.5973524e+08 2.5974132e+08    5200.2546    256.47404     2.616185        30880 
   30890    877.08741 2.5973525e+08 2.5974132e+08    5195.6581    260.99352    2.6184719        30890 
   30900    872.63183 2.5973526e+08 2.5974132e+08    5191.4968    264.85487    2.6207672        30900 
   30910    868.55786 2.5973526e+08 2.5974132e+08    5187.7973    267.99031      2.62307        30910 
   30920    864.93803 2.5973527e+08 2.5974132e+08    5184.5815    270.34364    2.6253806        30920 
   30930    861.88907 2.5973528e+08 2.5974132e+08    5181.8688    271.83959    2.6276989        30930 
   30940    859.43943 2.5973528e+08 2.5974132e+08    5179.6758    272.47901    2.6300249        30940 
   30950     857.3733 2.5973529e+08 2.5974132e+08    5178.0158    272.36599     2.632359        30950 
   30960    855.73313 2.5973529e+08 2.5974132e+08    5176.8977    271.61561    2.6347023        30960 
   30970    854.67783 2.5973529e+08 2.5974132e+08    5176.3269    270.20445    2.6370559        30970 
   30980    853.96664 2.5973529e+08 2.5974132e+08    5176.3049    268.18374    2.6394208        30980 
   30990    853.37552 2.5973529e+08 2.5974132e+08    5176.8297    265.67421    2.6417972        30990 
   31000    852.52772 2.5973529e+08 2.5974132e+08     5177.896    264.47509    2.6441853        31000 
   31010    851.02706 2.5973529e+08 2.5974132e+08    5179.5017     261.1073    2.6465874        31010 
   31020    849.77641 2.5973529e+08 2.5974132e+08    5181.6442    257.69837     2.649008        31020 
   31030    848.38448 2.5973529e+08 2.5974132e+08    5184.3149    254.05448    2.6514499        31030 
   31040    846.75666 2.5973529e+08 2.5974132e+08    5187.5029     250.1958     2.653915        31040 
   31050    844.78575 2.5973528e+08 2.5974132e+08    5191.1935    246.03978    2.6564051        31050 
   31060    842.46008 2.5973528e+08 2.5974132e+08    5195.3645    241.58564    2.6589197        31060 
   31070    839.71532 2.5973528e+08 2.5974132e+08    5199.9963    236.87166    2.6614623        31070 
   31080    836.50644 2.5973528e+08 2.5974132e+08     5205.063    231.93098    2.6640345        31080 
   31090    832.77233 2.5973528e+08 2.5974132e+08     5210.526    226.79507    2.6666333        31090 
   31100     828.5029 2.5973528e+08 2.5974132e+08    5216.3352     221.5175    2.6692525        31100 
   31110    823.84601 2.5973527e+08 2.5974132e+08    5222.4402    216.07594    2.6718885        31110 
   31120    818.92418 2.5973527e+08 2.5974132e+08    5228.7998    210.45344    2.6745424        31120 
   31130    813.80229 2.5973527e+08 2.5974132e+08    5235.3695      204.677    2.6772149        31130 
   31140    808.50472 2.5973527e+08 2.5974132e+08    5242.1043    198.81191    2.6799062        31140 
   31150    803.07248 2.5973527e+08 2.5974132e+08     5248.967    192.90964    2.6826194        31150 
   31160      797.544 2.5973527e+08 2.5974132e+08     5255.912    187.00983    2.6853537        31160 
   31170    791.96856 2.5973527e+08 2.5974132e+08    5262.8854    181.17062    2.6881041        31170 
   31180    786.36866 2.5973526e+08 2.5974132e+08    5269.8468    175.45798    2.6908702        31180 
   31190    780.75109 2.5973526e+08 2.5974132e+08    5276.7576    169.93195    2.6936519        31190 
   31200    775.20468 2.5973526e+08 2.5974132e+08    5283.4966    164.69885    2.6964141        31200 
   31210    769.78001 2.5973526e+08 2.5974132e+08    5289.9949    159.83023    2.6991405        31210 
   31220    764.47109 2.5973526e+08 2.5974132e+08    5296.2496     155.3546    2.7018403        31220 
   31230    759.27986 2.5973526e+08 2.5974132e+08    5302.2481     151.3009    2.7045181        31230 
   31240    754.20924 2.5973526e+08 2.5974132e+08    5307.9767    147.68281     2.707178        31240 
   31250    749.26826 2.5973526e+08 2.5974132e+08    5313.4208    144.50097    2.7098234        31250 
   31260     744.4679 2.5973526e+08 2.5974132e+08    5318.5671    141.73556    2.7124578        31260 
   31270    739.80882 2.5973526e+08 2.5974132e+08    5323.4044    139.36456     2.715086        31270 
   31280     735.2697 2.5973526e+08 2.5974132e+08    5327.9264    137.36904    2.7177157        31280 
   31290    730.81897 2.5973526e+08 2.5974132e+08    5332.1232    135.74513    2.7203539        31290 
   31300    726.46125 2.5973526e+08 2.5974132e+08    5335.9486    134.50923     2.722983        31300 
   31310    722.16646 2.5973526e+08 2.5974132e+08    5339.3917    133.67049    2.7256036        31310 
   31320    717.90674 2.5973526e+08 2.5974132e+08    5342.4451    133.23222    2.7282167        31320 
   31330    713.65615 2.5973526e+08 2.5974132e+08    5345.1074    133.19296    2.7308261        31330 
   31340    709.40375 2.5973526e+08 2.5974132e+08    5347.3801    133.54184    2.7334359        31340 
   31350    705.14091 2.5973527e+08 2.5974132e+08    5349.2646    134.25834    2.7360471        31350 
   31360    700.86771 2.5973527e+08 2.5974132e+08    5350.7645    135.31976    2.7386571        31360 
   31370    696.58351 2.5973527e+08 2.5974132e+08    5351.8888    136.70328    2.7412625        31370 
   31380    692.28205 2.5973528e+08 2.5974132e+08    5352.6526    138.38625     2.743861        31380 
   31390    687.95192 2.5973528e+08 2.5974132e+08    5353.0761     140.3468     2.746452        31390 
   31400    683.57365 2.5973528e+08 2.5974132e+08    5353.1832    142.56938    2.7490356        31400 
   31410    679.13225 2.5973529e+08 2.5974132e+08    5353.0016    145.03443    2.7516096        31410 
   31420    674.60968 2.5973529e+08 2.5974132e+08    5352.5632    147.72479    2.7541696        31420 
   31430    669.97305 2.597353e+08 2.5974132e+08    5351.9019    150.64604    2.7567177        31430 
   31440    665.17903 2.597353e+08 2.5974132e+08    5351.0498    153.80757    2.7592626        31440 
   31450      660.179 2.5973531e+08 2.5974132e+08    5350.0391    157.21715    2.7618123        31450 
   31460    654.93735 2.5973532e+08 2.5974132e+08    5348.9025    160.87523    2.7643732        31460 
   31470    649.42267 2.5973532e+08 2.5974132e+08    5347.6715    164.78796    2.7669557        31470 
   31480    643.60378 2.5973533e+08 2.5974132e+08    5346.3766    168.95251    2.7695737        31480 
   31490    637.46538 2.5973534e+08 2.5974132e+08    5345.0522    173.35283    2.7722376        31490 
   31500    631.02704 2.5973535e+08 2.5974132e+08    5343.7403    177.95078    2.7749467        31500 
   31510    624.32396 2.5973535e+08 2.5974132e+08    5342.4873    182.69208    2.7776949        31510 
   31520    617.41916 2.5973536e+08 2.5974132e+08    5341.3427    187.50122    2.7804672        31520 
   31530    610.34576 2.5973537e+08 2.5974132e+08    5340.3475    192.32401    2.7832627        31530 
   31540    603.12756 2.5973538e+08 2.5974132e+08    5339.5386    197.10767    2.7860896        31540 
   31550    595.82051 2.5973539e+08 2.5974132e+08    5338.9553    201.77197    2.7889508        31550 
   31560    588.55654 2.5973539e+08 2.5974132e+08    5338.6393    206.17839    2.7918236        31560 
   31570    581.43837 2.597354e+08 2.5974132e+08    5338.6231    210.20869     2.794697        31570 
   31580    574.53539 2.5973541e+08 2.5974132e+08    5338.9345    213.77318    2.7975731        31580 
   31590    567.89987 2.5973541e+08 2.5974132e+08    5339.6018    216.79339    2.8004577        31590 
   31600    561.56179 2.5973542e+08 2.5974132e+08    5340.6545    219.19846    2.8033565        31600 
   31610    555.51443 2.5973542e+08 2.5974132e+08    5342.1206     220.9548     2.806271        31610 
   31620    549.71185 2.5973543e+08 2.5974132e+08    5344.0259    222.07354     2.809202        31620 
   31630    544.06248 2.5973543e+08 2.5974132e+08    5346.3988    222.58501    2.8121563        31630 
   31640    538.42063 2.5973543e+08 2.5974132e+08    5349.2726    222.53806    2.8151448        31638 
   31650    532.68016 2.5973544e+08 2.5974132e+08     5352.643    222.00545    2.8181448        31638 
   31660    526.72731 2.5973544e+08 2.5974132e+08    5356.5019    221.07274    2.8211448        31638 
   31670    520.45608 2.5973544e+08 2.5974132e+08    5360.8462    219.83024    2.8241448        31638 
   31680    513.80636 2.5973544e+08 2.5974132e+08    5365.6683    218.35201    2.8271448        31638 
   31690     506.7625 2.5973544e+08 2.5974132e+08    5370.9552    216.69269    2.8301448        31638 
   31700    499.34335 2.5973544e+08 2.5974132e+08    5376.6892    214.89329    2.8331448        31638 
   31710     491.5966 2.5973545e+08 2.5974132e+08    5382.8468    212.96963    2.8361448        31638 
   31720    483.59311 2.5973545e+08 2.5974132e+08    5389.4003    210.92075    2.8391448        31638 
   31730    475.41763 2.5973545e+08 2.5974132e+08    5396.3179    208.73596    2.8421448        31638 
   31740    467.16214 2.5973545e+08 2.5974132e+08    5403.5642    206.40097    2.8451448        31638 
   31750    458.91565 2.5973545e+08 2.5974132e+08    5411.1005    203.90172    2.8481448        31638 
   31760     450.7588 2.5973545e+08 2.5974132e+08    5418.8857      201.227    2.8511448        31638 
   31770    442.76474 2.5973545e+08 2.5974132e+08    5426.8767    198.37647    2.8541448        31638 
   31780    434.99565 2.5973545e+08 2.5974132e+08    5435.0292    195.35307    2.8571448        31638 
   31790    427.49538 2.5973545e+08 2.5974132e+08    5443.2982    192.16058    2.8601448        31638 
   31800    420.29018 2.5973545e+08 2.5974132e+08    5451.6386     188.8164    2.8631448        31638 
   31810    413.39205 2.5973545e+08 2.5974132e+08     5460.006     185.3443    2.8661448        31638 
   31820    406.80462 2.5973545e+08 2.5974132e+08    5468.3564     181.7685    2.8691448        31638 
   31830    400.52968 2.5973544e+08 2.5974132e+08    5476.6476     178.1263    2.8721448        31638 
   31840    394.56428 2.5973544e+08 2.5974132e+08    5484.8401    174.45923    2.8751448        31638 
   31850    388.89064 2.5973544e+08 2.5974132e+08    5492.8969    170.81156    2.8781448        31638 
   31860    383.47313 2.5973544e+08 2.5974132e+08    5500.7839    167.22909    2.8811448        31638 
   31870    378.26585 2.5973543e+08 2.5974132e+08    5508.4699    163.75878    2.8841448        31638 
   31880     373.2204 2.5973543e+08 2.5974132e+08    5515.9267    160.43711    2.8871448        31638 
   31890    368.28143 2.5973543e+08 2.5974132e+08    5523.1296    157.29723    2.8901448        31638 
   31900    363.38535 2.5973543e+08 2.5974132e+08    5530.0576    154.37583    2.8931448        31638 
   31910    358.46466 2.5973543e+08 2.5974132e+08     5536.694    151.71421    2.8961448        31638 
   31920     353.4607 2.5973542e+08 2.5974132e+08    5543.0268    149.35335    2.8991448        31638 
   31930    348.32574 2.5973542e+08 2.5974132e+08    5549.0494    147.33493    2.9021448        31638 
   31940    343.01656 2.5973542e+08 2.5974132e+08     5554.761    145.69942    2.9051448        31638 
   31950    337.49828 2.5973542e+08 2.5974132e+08    5560.1656    144.48762    2.9081448        31638 
   31960    331.74838 2.5973542e+08 2.5974132e+08    5565.2724    143.73217    2.9111448        31638 
   31970    325.75706 2.5973543e+08 2.5974132e+08    5570.0947    143.43949    2.9141448        31638 
   31980    319.52544 2.5973543e+08 2.5974132e+08     5574.649    143.59768    2.9171448        31638 
   31990    313.06808 2.5973543e+08 2.5974132e+08    5578.9536    144.17209    2.9201448        31638 
   32000    306.44231 2.5973543e+08 2.5974132e+08    5583.0278    143.42548    2.9231448        31638 
   32010    300.20342 2.5973543e+08 2.5974132e+08    5586.8865    144.97661    2.9261448        31638 
   32020    293.80981 2.5973544e+08 2.5974132e+08    5590.5464    146.56682    2.9291448        31638 
   32030    287.35074 2.5973544e+08 2.5974132e+08    5594.0284    148.25356    2.9321448        31638 
   32040    280.89536 2.5973544e+08 2.5974132e+08    5597.3524    150.02528    2.9351448        31638 
   32050     274.5195 2.5973545e+08 2.5974132e+08    5600.5376     151.8133    2.9381448        31638 
   32060    268.29665 2.5973545e+08 2.5974132e+08    5603.6026    153.54045    2.9411448        31638 
   32070     262.2916 2.5973545e+08 2.5974132e+08    5606.5664    155.13087    2.9441448        31638 
   32080    256.55928 2.5973545e+08 2.5974132e+08     5609.448    156.51729    2.9471448        31638 
   32090    251.13852 2.5973546e+08 2.5974132e+08    5612.2674    157.65256    2.9501448        31638 
   32100    246.04934 2.5973546e+08 2.5974132e+08     5615.045    158.51067    2.9531448        31638 
   32110    241.29475 2.5973546e+08 2.5974132e+08    5617.8022    159.08301    2.9561448        31638 
   32120    236.86411 2.5973546e+08 2.5974132e+08    5620.5604    159.37998    2.9591448        31638 
   32130    232.73686 2.5973546e+08 2.5974132e+08    5623.3411    159.42904    2.9621448        31638 
   32140    228.88533 2.5973547e+08 2.5974132e+08    5626.1643    159.26455    2.9651448        31638 
   32150    225.27568 2.5973547e+08 2.5974132e+08    5629.0477    158.92141    2.9681448        31638 
   32160    221.86676 2.5973547e+08 2.5974132e+08    5632.0052    158.44283    2.9711448        31638 
   32170    218.60899 2.5973547e+08 2.5974132e+08    5635.0457    157.87597    2.9741448        31638 
   32180    215.44392 2.5973547e+08 2.5974132e+08    5638.1727    157.26983    2.9771448        31638 
   32190    212.30688 2.5973547e+08 2.5974132e+08    5641.3839    156.66539    2.9801448        31638 
   32200    209.13298 2.5973547e+08 2.5974132e+08    5644.6709    156.08755    2.9831448        31638 
   32210    205.85381 2.5973547e+08 2.5974132e+08    5648.0198    155.54464    2.9861448        31638 
   32220    202.39277 2.5973547e+08 2.5974132e+08    5651.4123    155.03419    2.9891448        31638 
   32230    198.67663 2.5973547e+08 2.5974132e+08    5654.8275    154.54893    2.9921448        31638 
   32240    194.65428 2.5973547e+08 2.5974132e+08     5658.243    154.07973    2.9951448        31638 
   32250    190.30848 2.5973547e+08 2.5974132e+08     5661.637    153.62105    2.9981448        31638 
   32260    185.66201 2.5973547e+08 2.5974132e+08     5664.989    153.16999    3.0011448        31638 
   32270    180.77306 2.5973547e+08 2.5974132e+08    5668.2813    152.72154    3.0041448        31638 
   32280    175.72206 2.5973547e+08 2.5974132e+08    5671.4992    152.26729    3.0071448        31638 
   32290    170.59568 2.5973548e+08 2.5974132e+08    5674.6319    151.79953    3.0101448        31638 
   32300    165.48193 2.5973548e+08 2.5974132e+08    5677.6722    151.31354    3.0131448        31638 
   32310    160.47244 2.5973548e+08 2.5974132e+08    5680.6166    150.81023    3.0161448        31638 
   32320    155.66172 2.5973548e+08 2.5974132e+08     5683.464    150.29827    3.0191448        31638 
   32330    151.14146 2.5973548e+08 2.5974132e+08    5686.2148    149.80539    3.0221448        31638 
   32340    146.98958 2.5973549e+08 2.5974132e+08    5688.8696    149.37035    3.0251448        31638 
   32350    143.26106 2.5973549e+08 2.5974132e+08    5691.4274    149.02885    3.0281448        31638 
   32360    139.98234 2.5973549e+08 2.5974132e+08    5693.8844    148.80933    3.0311448        31638 
   32370    137.15025 2.5973549e+08 2.5974132e+08    5696.2337    148.72269    3.0341448        31638 
   32380    134.73577 2.5973549e+08 2.5974132e+08     5698.465    148.76733    3.0371448        31638 
   32390    132.69011 2.5973549e+08 2.5974132e+08    5700.5653    148.92676    3.0401448        31638 
   32400    130.95164 2.5973549e+08 2.5974132e+08    5702.5202    149.17231    3.0431448        31638 
   32410    129.45233 2.5973549e+08 2.5974132e+08    5704.3145    149.47768    3.0461448        31638 
   32420    128.12284 2.5973549e+08 2.5974132e+08    5705.9341    149.82016    3.0491448        31638 
   32430    126.89696 2.5973549e+08 2.5974132e+08    5707.3665     150.1842    3.0521448        31638 
   32440    125.71287 2.5973549e+08 2.5974132e+08     5708.602    150.55727    3.0551448        31638 
   32450    124.51383 2.5973549e+08 2.5974132e+08    5709.6342    150.93487    3.0581448        31638 
   32460    123.24946 2.5973549e+08 2.5974132e+08    5710.4614    151.32224    3.0611448        31638 
   32470    121.87729 2.5973549e+08 2.5974132e+08    5711.0861    151.73259    3.0641448        31638 
   32480    120.36368 2.5973549e+08 2.5974132e+08    5711.5161    152.18703    3.0671448        31638 
   32490    118.68597 2.5973549e+08 2.5974132e+08     5711.764    152.71194    3.0701448        31638 
   32500    116.83553 2.5973549e+08 2.5974132e+08    5711.8463     153.3316    3.0731448        31638 
   32510     114.8186 2.5973549e+08 2.5974132e+08    5711.7833    154.06455    3.0761448        31638 
   32520    112.65511 2.597355e+08 2.5974132e+08    5711.5978    154.92218    3.0791448        31638 
   32530    110.37608 2.597355e+08 2.5974132e+08    5711.3139    155.90745    3.0821448        31638 
   32540    108.01993 2.597355e+08 2.5974132e+08    5710.9559    157.01278    3.0851448        31638 
   32550    105.62892 2.597355e+08 2.5974132e+08    5710.5476    158.21784    3.0881448        31638 
   32560    103.24583 2.5973551e+08 2.5974132e+08    5710.1112    159.49305    3.0911448        31638 
   32570    100.91177 2.5973551e+08 2.5974132e+08    5709.6668    160.80548    3.0941448        31638 
   32580    98.665512 2.5973551e+08 2.5974132e+08    5709.2325    162.11377    3.0971448        31638 
   32590    96.543949 2.5973552e+08 2.5974132e+08    5708.8242    163.37437    3.1001448        31638 
   32600    94.583408 2.5973552e+08 2.5974132e+08    5708.4556    164.53982    3.1031448        31638 
   32610    92.820642 2.5973552e+08 2.5974132e+08    5708.1383    165.55961    3.1061448        31638 
   32620    91.291919 2.5973552e+08 2.5974132e+08     5707.882    166.38201    3.1091448        31638 
   32630    90.030527 2.5973552e+08 2.5974132e+08    5707.6946    166.95826    3.1121448        31638 
   32640    89.063517 2.5973552e+08 2.5974132e+08    5707.5823    167.24955    3.1151448        31638 
   32650    88.408699 2.5973552e+08 2.5974132e+08    5707.5498    167.23071    3.1181448        31638 
   32660      88.0722 2.5973553e+08 2.5974132e+08    5707.6005    166.89196    3.1211448        31638 
   32670    88.047524 2.5973553e+08 2.5974132e+08    5707.7362    166.24029    3.1241448        31638 
   32680    88.316586 2.5973552e+08 2.5974132e+08    5707.9567    165.29938    3.1271448        31638 
   32690    88.851599 2.5973552e+08 2.5974132e+08    5708.2597    164.10521    3.1301448        31638 
   32700    89.616781 2.5973552e+08 2.5974132e+08      5708.64    162.70699    3.1331448        31638 
   32710    90.569542 2.5973552e+08 2.5974132e+08    5709.0894    161.15859    3.1361448        31638 
   32720     91.65996 2.5973552e+08 2.5974132e+08    5709.5964    159.51483    3.1391448        31638 
   32730    92.830139 2.5973552e+08 2.5974132e+08    5710.1461    157.82775    3.1421448        31638 
   32740    94.015732 2.5973552e+08 2.5974132e+08    5710.7203    156.14376    3.1451448        31638 
   32750    95.150818 2.5973551e+08 2.5974132e+08    5711.2982    154.50438    3.1481448        31638 
   32760     96.17337 2.5973551e+08 2.5974132e+08    5711.8572    152.94489    3.1511448        31638 
   32770    97.032685 2.5973551e+08 2.5974132e+08    5712.3735    151.49487    3.1541448        31638 
   32780    97.697767 2.5973551e+08 2.5974132e+08    5712.8234    150.17782    3.1571448        31638 
   32790    98.162167 2.5973551e+08 2.5974132e+08    5713.1839    149.00999    3.1601448        31638 
   32800    98.441939 2.5973551e+08 2.5974132e+08    5713.4336    147.99855    3.1631448        31638 
   32810    98.569192 2.5973551e+08 2.5974132e+08    5713.5532    147.14354    3.1661448        31638 
   32820    98.583953 2.5973551e+08 2.5974132e+08    5713.5255    146.43945    3.1691448        31638 
   32830    98.530126 2.5973551e+08 2.5974132e+08    5713.3362    145.87551    3.1721448        31638 
   32840    98.455121 2.5973551e+08 2.5974132e+08     5712.973    145.43521    3.1751448        31638 
   32850    98.409908 2.5973551e+08 2.5974132e+08    5712.4265    145.09818    3.1781448        31638 
   32860    98.447862 2.5973551e+08 2.5974132e+08     5711.689    144.84264    3.1811448        31638 
   32870    98.621402 2.5973551e+08 2.5974132e+08    5710.7547     144.6497    3.1841448        31638 
   32880    98.977668 2.5973551e+08 2.5974132e+08    5709.6193    144.50314    3.1871448        31638 
   32890    99.554086 2.5973551e+08 2.5974132e+08    5708.2795    144.39487    3.1901448        31638 
   32900    100.37594 2.5973551e+08 2.5974132e+08    5706.7332    144.32144    3.1931448        31638 
   32910    101.45528 2.5973551e+08 2.5974132e+08     5704.979    144.28089    3.1961448        31638 
   32920     102.7905 2.5973552e+08 2.5974132e+08    5703.0167    144.27124    3.1991448        31638 
   32930    104.36773 2.5973552e+08 2.5974132e+08    5700.8468    144.29245    3.2021448        31638 
   32940    106.16364 2.5973552e+08 2.5974132e+08    5698.4712     144.3474    3.2051448        31638 
   32950    108.14795 2.5973552e+08 2.5974132e+08    5695.8931    144.44212    3.2081448        31638 
   32960    110.28709 2.5973552e+08 2.5974132e+08     5693.117    144.58678    3.2111448        31638 
   32970    112.54554 2.5973552e+08 2.5974132e+08    5690.1491    144.79434    3.2141448        31638 
   32980    114.88711 2.5973552e+08 2.5974132e+08     5686.997    145.08088    3.2171448        31638 
   32990    117.27776 2.5973552e+08 2.5974132e+08      5683.67    145.46957    3.2201448        31638 
   33000    119.68343 2.5973552e+08 2.5974132e+08    5680.1789    146.18657    3.2231448        31638 
   33010    122.02412 2.5973552e+08 2.5974132e+08    5676.5374    146.80513    3.2261448        31638 
   33020    124.32875 2.5973552e+08 2.5974132e+08    5672.7597    147.62225    3.2291448        31638 
   33030    126.56548 2.5973553e+08 2.5974132e+08    5668.8606    148.62649    3.2321448        31638 
   33040    128.70889 2.5973553e+08 2.5974132e+08    5664.8559    149.81591    3.2351448        31638 
   33050    130.73772 2.5973553e+08 2.5974132e+08    5660.7622    151.19135    3.2381448        31638 
   33060    132.63914 2.5973553e+08 2.5974132e+08    5656.5964    152.75085    3.2411448        31638 
   33070    134.41141 2.5973553e+08 2.5974132e+08    5652.3756    154.48578    3.2441448        31638 
   33080    136.06334 2.5973554e+08 2.5974132e+08    5648.1161    156.37927    3.2471448        31638 
   33090    137.61371 2.5973554e+08 2.5974132e+08    5643.8337     158.4012    3.2501448        31638 
   33100    139.08942 2.5973554e+08 2.5974132e+08    5639.5432    160.51068    3.2531448        31638 
   33110    140.52145 2.5973555e+08 2.5974132e+08    5635.2584    162.65866    3.2561448        31638 
   33120    141.94195 2.5973555e+08 2.5974132e+08     5630.992    164.79517    3.2591448        31638 
   33130    143.38499 2.5973555e+08 2.5974132e+08    5626.7558    166.87171    3.2621448        31638 
   33140    144.88423 2.5973555e+08 2.5974132e+08    5622.5602    168.83911    3.2651448        31638 
   33150    146.46915 2.5973556e+08 2.5974132e+08    5618.4148    170.64826    3.2681448        31638 
   33160    148.16538 2.5973556e+08 2.5974132e+08    5614.3282     172.2555    3.2711448        31638 
   33170     149.9918 2.5973556e+08 2.5974132e+08    5610.3082    173.62676    3.2741448        31638 
   33180    151.95939 2.5973556e+08 2.5974132e+08    5606.3621    174.74681    3.2771448        31638 
   33190    154.07092 2.5973556e+08 2.5974132e+08    5602.4963    175.62101    3.2801448        31638 
   33200    156.32126 2.5973557e+08 2.5974132e+08    5598.7167    176.26505    3.2831448        31638 
   33210    158.69577 2.5973557e+08 2.5974132e+08    5595.0279    176.70217    3.2861448        31638 
   33220    161.17233 2.5973557e+08 2.5974132e+08    5591.4333    176.96191    3.2891448        31638 
   33230    163.72668 2.5973557e+08 2.5974132e+08    5587.9345    177.07083    3.2921448        31638 
   33240    166.33328 2.5973557e+08 2.5974132e+08     5584.531    177.05493    3.2951448        31638 
   33250    168.96108 2.5973557e+08 2.5974132e+08    5581.2196    176.93804    3.2981448        31638 
   33260    171.57593 2.5973557e+08 2.5974132e+08    5577.9947    176.73779    3.3011448        31638 
   33270    174.14368 2.5973557e+08 2.5974132e+08    5574.8484    176.46561    3.3041448        31638 
   33280     176.6312 2.5973557e+08 2.5974132e+08    5571.7707    176.13154    3.3071448        31638 
   33290    179.00449 2.5973557e+08 2.5974132e+08    5568.7499    175.74826    3.3101448        31638 
   33300    181.23564 2.5973557e+08 2.5974132e+08    5565.7743    175.32849    3.3131448        31638 
   33310    183.30744 2.5973557e+08 2.5974132e+08    5562.8321    174.88329    3.3161448        31638 
   33320    185.21134 2.5973558e+08 2.5974132e+08    5559.9126     174.4254    3.3191448        31638 
   33330    186.95477 2.5973558e+08 2.5974132e+08    5557.0062    173.97319    3.3221448        31638 
   33340    188.56052 2.5973558e+08 2.5974132e+08    5554.1046    173.53867    3.3251448        31638 
   33350    190.05894 2.5973558e+08 2.5974132e+08    5551.2011    173.12953    3.3281448        31638 
   33360    191.48367 2.5973558e+08 2.5974132e+08    5548.2906    172.75951    3.3311448        31638 
   33370    192.87283 2.5973558e+08 2.5974132e+08    5545.3695    172.44335    3.3341448        31638 
   33380    194.26992 2.5973558e+08 2.5974132e+08    5542.4355    172.19583    3.3371448        31638 
   33390    195.71789 2.5973559e+08 2.5974132e+08    5539.4869    172.03005    3.3401448        31638 
   33400    197.25483 2.5973559e+08 2.5974132e+08    5536.5225    171.95792    3.3431448        31638 
   33410    198.91374 2.5973559e+08 2.5974132e+08    5533.5412    171.98525    3.3461448        31638 
   33420    200.72093 2.5973559e+08 2.5974132e+08    5530.5415    172.11176    3.3491448        31638 
   33430    202.69232 2.5973559e+08 2.5974132e+08    5527.5215    172.33328    3.3521448        31638 
   33440     204.8328 2.5973559e+08 2.5974132e+08    5524.4793    172.64486    3.3551448        31638 
   33450    207.13565 2.5973559e+08 2.5974132e+08    5521.4131    173.03437    3.3581448        31638 
   33460    209.58102 2.5973559e+08 2.5974132e+08    5518.3211    173.48742    3.3611448        31638 
   33470    212.14022 2.5973559e+08 2.5974132e+08    5515.2019    173.99352    3.3641448        31638 
   33480    214.78203 2.5973559e+08 2.5974132e+08    5512.0548    174.54225    3.3671448        31638 
   33490    217.47283 2.5973559e+08 2.5974132e+08    5508.8803    175.12184    3.3701448        31638 
   33500    220.17671 2.597356e+08 2.5974132e+08    5505.6801    175.71969    3.3731448        31638 
   33510    222.85938 2.597356e+08 2.5974132e+08    5502.4573    176.32734    3.3761448        31638 
   33520    225.49144 2.597356e+08 2.5974132e+08    5499.2168     176.9365    3.3791448        31638 
   33530    228.04679 2.597356e+08 2.5974132e+08    5495.9651    177.54035    3.3821448        31638 
   33540    230.50138 2.597356e+08 2.5974132e+08    5492.7109    178.13331    3.3851448        31638 
   33550     232.8349 2.597356e+08 2.5974132e+08    5489.4648    178.71162    3.3881448        31638 
   33560    235.03046 2.597356e+08 2.5974132e+08    5486.2393    179.27531    3.3911448        31638 
   33570    237.07559 2.597356e+08 2.5974132e+08    5483.0486    179.82514    3.3941448        31638 
   33580    238.96159 2.597356e+08 2.5974132e+08    5479.9084    180.35662    3.3971448        31638 
   33590    240.68459 2.597356e+08 2.5974132e+08    5476.8348    180.86341    3.4001448        31638 
   33600    242.24839 2.597356e+08 2.5974132e+08    5473.8441    181.33635    3.4031448        31638 
   33610    243.66386 2.5973561e+08 2.5974132e+08     5470.952    181.75965    3.4061448        31638 
   33620    244.94658 2.5973561e+08 2.5974132e+08    5468.1729    182.11714    3.4091448        31638 
   33630    246.11628 2.5973561e+08 2.5974132e+08      5465.52    182.39722    3.4121448        31638 
   33640    247.20233 2.5973561e+08 2.5974132e+08     5463.005    182.58447    3.4151448        31638 
   33650    248.24389 2.5973561e+08 2.5974132e+08    5460.6374    182.65256    3.4181448        31638 
   33660    249.28524 2.5973561e+08 2.5974132e+08    5458.4247    182.57787    3.4211448        31638 
   33670    250.36607 2.5973561e+08 2.5974132e+08    5456.3722    182.34235    3.4241448        31638 
   33680    251.51925 2.5973561e+08 2.5974132e+08     5454.483    181.93125    3.4271448        31638 
   33690    252.76999 2.5973562e+08 2.5974132e+08    5452.7586    181.33225    3.4301448        31638 
   33700    254.13477 2.5973562e+08 2.5974132e+08    5451.1985    180.54114    3.4331448        31638 
   33710    255.62155 2.5973562e+08 2.5974132e+08    5449.7999    179.56018    3.4361448        31638 
   33720    257.22759 2.5973562e+08 2.5974132e+08    5448.5577    178.39884    3.4391448        31638 
   33730    258.93954 2.5973561e+08 2.5974132e+08    5447.4641    177.07507    3.4421448        31638 
   33740    260.73593 2.5973561e+08 2.5974132e+08     5446.509    175.61202    3.4451448        31638 
   33750    262.59058 2.5973561e+08 2.5974132e+08      5445.68    174.04516    3.4481448        31638 
   33760    264.47767 2.5973561e+08 2.5974132e+08    5444.9618    172.40875    3.4511448        31638 
   33770    266.37015 2.5973561e+08 2.5974132e+08     5444.337    170.72869    3.4541448        31638 
   33780    268.24238 2.5973561e+08 2.5974132e+08    5443.7856    169.02408    3.4571448        31638 
   33790    270.06881 2.5973561e+08 2.5974132e+08    5443.2856    167.31464    3.4601448        31638 
   33800    271.82565 2.5973561e+08 2.5974132e+08    5442.8134    165.62119    3.4631448        31638 
   33810    273.49384 2.5973561e+08 2.5974132e+08    5442.3443    163.96727    3.4661448        31638 
   33820    275.06056 2.597356e+08 2.5974132e+08    5441.8526    162.37767    3.4691448        31638 
   33830    276.51839 2.597356e+08 2.5974132e+08    5441.3129    160.86576    3.4721448        31638 
   33840    277.85913 2.597356e+08 2.5974132e+08    5440.7004    159.44053    3.4751448        31638 
   33850     279.0746 2.597356e+08 2.5974132e+08    5439.9921    158.10982    3.4781448        31638 
   33860    280.16635 2.597356e+08 2.5974132e+08    5439.1674    156.88727    3.4811448        31638 
   33870    281.14808 2.597356e+08 2.5974132e+08    5438.2085    155.77978    3.4841448        31638 
   33880    282.03993 2.597356e+08 2.5974132e+08    5437.1004    154.78323    3.4871448        31638 
   33890    282.85971 2.597356e+08 2.5974132e+08    5435.8319    153.89668    3.4901448        31638 
   33900    283.61696 2.597356e+08 2.5974132e+08    5434.3949    153.12084    3.4931448        31638 
   33910    284.32353 2.597356e+08 2.5974132e+08    5432.7847    152.46745    3.4961448        31638 
   33920    284.99783 2.597356e+08 2.5974132e+08    5430.9996    151.94929    3.4991448        31638 
   33930    285.65987 2.5973561e+08 2.5974132e+08    5429.0401    151.58489    3.5021448        31638 
   33940    286.32874 2.5973561e+08 2.5974132e+08    5426.9091    151.39092    3.5051448        31638 
   33950    287.01523 2.5973561e+08 2.5974132e+08    5424.6109    151.38036    3.5081448        31638 
   33960    287.72697 2.5973561e+08 2.5974132e+08    5422.1516     151.5655    3.5111448        31638 
   33970    288.47836 2.5973561e+08 2.5974132e+08    5419.5393    151.96033    3.5141448        31638 
   33980    289.28452 2.5973561e+08 2.5974132e+08    5416.7831    152.57422    3.5171448        31638 
   33990    290.15441 2.5973562e+08 2.5974132e+08    5413.8931     153.4073    3.5201448        31638 
   34000     291.0706 2.5973562e+08 2.5974132e+08    5410.8805    155.29316    3.5231448        31638 
   34010    291.79277 2.5973562e+08 2.5974132e+08    5407.7629     156.3536    3.5261448        31638 
   34020    292.59128 2.5973562e+08 2.5974132e+08    5404.5566    157.77353    3.5291448        31638 
   34030    293.42806 2.5973563e+08 2.5974132e+08    5401.2727    159.39286    3.5321448        31638 
   34040    294.28523 2.5973563e+08 2.5974132e+08    5397.9235    161.14537    3.5351448        31638 
   34050    295.14651 2.5973563e+08 2.5974132e+08    5394.5223     163.0035    3.5381448        31638 
   34060    295.99966 2.5973563e+08 2.5974132e+08    5391.0838     164.9422    3.5411448        31638 
   34070    296.83172 2.5973564e+08 2.5974132e+08    5387.6234    166.93033    3.5441448        31638 
   34080    297.62882 2.5973564e+08 2.5974132e+08    5384.1577    168.94381    3.5471448        31638 
   34090    298.38146 2.5973564e+08 2.5974132e+08     5380.704    170.95867    3.5501448        31638 
   34100     299.0825 2.5973564e+08 2.5974132e+08    5377.2803    172.94949    3.5531448        31638 
   34110    299.72498 2.5973565e+08 2.5974132e+08    5373.9051     174.8906    3.5561448        31638 
   34120    300.30378 2.5973565e+08 2.5974132e+08    5370.5973    176.76187    3.5591448        31638 
   34130    300.81988 2.5973565e+08 2.5974132e+08    5367.3761    178.54267    3.5621448        31638 
   34140    301.28007 2.5973566e+08 2.5974132e+08    5364.2604     180.2077    3.5651448        31638 
   34150    301.69154 2.5973566e+08 2.5974132e+08    5361.2683    181.73246    3.5681448        31638 
   34160    302.05937 2.5973566e+08 2.5974132e+08    5358.4165    183.09869    3.5711448        31638 
   34170    302.39311 2.5973566e+08 2.5974132e+08    5355.7207    184.29409    3.5741448        31638 
   34180    302.70672 2.5973567e+08 2.5974132e+08    5353.1949    185.30639    3.5771448        31638 
   34190    303.01288 2.5973567e+08 2.5974132e+08    5350.8518    186.12364    3.5801448        31638 
   34200    303.31641 2.5973567e+08 2.5974132e+08     5348.702    186.73939    3.5831448        31638 
   34210    303.62248 2.5973567e+08 2.5974132e+08    5346.7541    187.15334    3.5861448        31638 
   34220    303.94341 2.5973567e+08 2.5974132e+08    5345.0152    187.36404    3.5891448        31638 
   34230    304.29426 2.5973567e+08 2.5974132e+08    5343.4895    187.36635    3.5921448        31638 
   34240     304.6837 2.5973567e+08 2.5974132e+08    5342.1783     187.1608    3.5951448        31638 
   34250    305.11334 2.5973567e+08 2.5974132e+08    5341.0801     186.7537    3.5981448        31638 
   34260    305.58237 2.5973568e+08 2.5974132e+08    5340.1909    186.15216    3.6011448        31638 
   34270    306.08886 2.5973568e+08 2.5974132e+08    5339.5042     185.3618    3.6041448        31638 
   34280    306.62828 2.5973568e+08 2.5974132e+08     5339.011    184.39238    3.6071448        31638 
   34290    307.19187 2.5973568e+08 2.5974132e+08    5338.6997    183.25763    3.6101448        31638 
   34300    307.76797 2.5973567e+08 2.5974132e+08     5338.557    181.97512    3.6131448        31638 
   34310    308.34376 2.5973567e+08 2.5974132e+08    5338.5677    180.56373    3.6161448        31638 
   34320    308.90798 2.5973567e+08 2.5974132e+08    5338.7154    179.04128    3.6191448        31638 
   34330    309.45265 2.5973567e+08 2.5974132e+08    5338.9824    177.42742    3.6221448        31638 
   34340    309.97136 2.5973567e+08 2.5974132e+08    5339.3501    175.73613    3.6251448        31638 
   34350    310.45819 2.5973567e+08 2.5974132e+08    5339.7994     173.9808    3.6281448        31638 
   34360    310.90691 2.5973567e+08 2.5974132e+08    5340.3107    172.17572    3.6311448        31638 
   34370    311.31244 2.5973567e+08 2.5974132e+08    5340.8646     170.3383    3.6341448        31638 
   34380    311.67374 2.5973567e+08 2.5974132e+08    5341.4415    168.48472    3.6371448        31638 
   34390    311.99221 2.5973567e+08 2.5974132e+08    5342.0226    166.62829    3.6401448        31638 
   34400    312.27057 2.5973567e+08 2.5974132e+08    5342.5894    164.78229    3.6431448        31638 
   34410    312.51136 2.5973567e+08 2.5974132e+08    5343.1241    162.95967    3.6461448        31638 
   34420    312.71772 2.5973566e+08 2.5974132e+08      5343.61     161.1724    3.6491448        31638 
   34430     312.8967 2.5973566e+08 2.5974132e+08    5344.0317    159.43319    3.6521448        31638 
   34440    313.05672 2.5973566e+08 2.5974132e+08    5344.3752    157.75737    3.6551448        31638 
   34450     313.2047 2.5973566e+08 2.5974132e+08    5344.6282    156.16246    3.6581448        31638 
   34460    313.34329 2.5973566e+08 2.5974132e+08    5344.7805    154.66377    3.6611448        31638 
   34470    313.47227 2.5973566e+08 2.5974132e+08    5344.8236    153.28102    3.6641448        31638 
   34480    313.59311 2.5973566e+08 2.5974132e+08    5344.7509    152.03441    3.6671448        31638 
   34490    313.70846 2.5973566e+08 2.5974132e+08    5344.5574    150.94162    3.6701448        31638 
   34500    313.81872 2.5973566e+08 2.5974132e+08    5344.2393     150.0154    3.6731448        31638 
   34510    313.91997 2.5973566e+08 2.5974132e+08    5343.7941     149.2706    3.6761448        31638 
   34520    314.00759 2.5973566e+08 2.5974132e+08      5343.22    148.71673    3.6791448        31638 
   34530    314.07756 2.5973566e+08 2.5974132e+08    5342.5166     148.3617    3.6821448        31638 
   34540    314.12674 2.5973567e+08 2.5974132e+08    5341.6842    148.20897    3.6851448        31638 
   34550    314.15143 2.5973567e+08 2.5974132e+08    5340.7244    148.26202    3.6881448        31638 
   34560    314.14774 2.5973567e+08 2.5974132e+08    5339.6393    148.52346    3.6911448        31638 
   34570     314.1123 2.5973567e+08 2.5974132e+08    5338.4318    148.98988    3.6941448        31638 
   34580    314.04227 2.5973567e+08 2.5974132e+08    5337.1058    149.65698    3.6971448        31638 
   34590    313.93428 2.5973567e+08 2.5974132e+08    5335.6659    150.51535    3.7001448        31638 
   34600    313.78461 2.5973567e+08 2.5974132e+08    5334.1179      151.553    3.7031448        31638 
   34610    313.59107 2.5973567e+08 2.5974132e+08    5332.4684    152.75368    3.7061448        31638 
   34620    313.35368 2.5973568e+08 2.5974132e+08     5330.725    154.09129    3.7091448        31638 
   34630    313.07455 2.5973568e+08 2.5974132e+08    5328.8968     155.5387    3.7121448        31638 
   34640    312.75686 2.5973568e+08 2.5974132e+08    5326.9936    157.06761    3.7151448        31638 
   34650    312.40489 2.5973568e+08 2.5974132e+08    5325.0266    158.64677    3.7181448        31638 
   34660    312.02392 2.5973569e+08 2.5974132e+08     5323.008    160.24849    3.7211448        31638 
   34670    311.61841 2.5973569e+08 2.5974132e+08    5320.9515    161.84832    3.7241448        31638 
   34680    311.19159 2.5973569e+08 2.5974132e+08    5318.8717    163.42356    3.7271448        31638 
   34690    310.74517 2.5973569e+08 2.5974132e+08    5316.7845     164.9542    3.7301448        31638 
   34700    310.27964 2.597357e+08 2.5974132e+08    5314.7067      166.425    3.7331448        31638 
   34710    309.79592 2.597357e+08 2.5974132e+08    5312.6557    167.82521    3.7361448        31638 
   34720    309.29483 2.597357e+08 2.5974132e+08     5310.649    169.15178    3.7391448        31638 
   34730    308.77625 2.597357e+08 2.5974132e+08    5308.7041    170.40579    3.7421448        31638 
   34740    308.23868 2.5973571e+08 2.5974132e+08    5306.8379    171.58629    3.7451448        31638 
   34750    307.67962 2.5973571e+08 2.5974132e+08    5305.0664    172.69186    3.7481448        31638 
   34760    307.09441 2.5973571e+08 2.5974132e+08     5303.404    173.72382    3.7511448        31638 
   34770    306.47615 2.5973571e+08 2.5974132e+08    5301.8635    174.68877    3.7541448        31638 
   34780    305.81621 2.5973571e+08 2.5974132e+08    5300.4557    175.59282    3.7571448        31638 
   34790    305.10483 2.5973572e+08 2.5974132e+08     5299.189    176.44097    3.7601448        31638 
   34800    304.33142 2.5973572e+08 2.5974132e+08    5298.0697    177.24058    3.7631448        31638 
   34810    303.48525 2.5973572e+08 2.5974132e+08    5297.1012    177.99491    3.7661448        31638 
   34820    302.55589 2.5973572e+08 2.5974132e+08    5296.2849    178.70569    3.7691448        31638 
   34830     301.5345 2.5973572e+08 2.5974132e+08    5295.6198    179.36905    3.7721448        31638 
   34840    300.41517 2.5973573e+08 2.5974132e+08    5295.1032    179.97549    3.7751448        31638 
   34850    299.19718 2.5973573e+08 2.5974132e+08    5294.7306    180.51147    3.7781448        31638 
   34860    297.88422 2.5973573e+08 2.5974132e+08    5294.4963    180.96007    3.7811448        31638 
   34870    296.48378 2.5973573e+08 2.5974132e+08     5294.394    181.30718    3.7841448        31638 
   34880    295.00716 2.5973573e+08 2.5974132e+08    5294.4173    181.53936    3.7871448        31638 
   34890     293.4682 2.5973573e+08 2.5974132e+08    5294.5599    181.64403    3.7901448        31638 
   34900    291.88221 2.5973573e+08 2.5974132e+08    5294.8157    181.61509    3.7931448        31638 
   34910    290.26473 2.5973574e+08 2.5974132e+08    5295.1795    181.45195    3.7961448        31638 
   34920    288.63187 2.5973574e+08 2.5974132e+08    5295.6469    181.15992    3.7991448        31638 
   34930    286.99881 2.5973574e+08 2.5974132e+08    5296.2145    180.74824    3.8021448        31638 
   34940     285.3787 2.5973574e+08 2.5974132e+08    5296.8794    180.23192    3.8051448        31638 
   34950    283.78275 2.5973574e+08 2.5974132e+08    5297.6399    179.62413    3.8081448        31638 
   34960    282.22133 2.5973574e+08 2.5974132e+08    5298.4943    178.93769    3.8111448        31638 
   34970    280.70348 2.5973574e+08 2.5974132e+08    5299.4414    178.18775    3.8141448        31638 
   34980    279.23531 2.5973574e+08 2.5974132e+08    5300.4799    177.39091    3.8171448        31638 
   34990    277.82036 2.5973574e+08 2.5974132e+08    5301.6085    176.56488    3.8201448        31638 
   35000    276.47945 2.5973574e+08 2.5974132e+08     5302.825    174.48421    3.8231448        31638 
   35010    275.56204 2.5973574e+08 2.5974132e+08    5304.1205    173.88598    3.8261448        31638 
   35020    274.64285 2.5973574e+08 2.5974132e+08    5305.4869    173.08192    3.8291448        31638 
   35030    273.72355 2.5973574e+08 2.5974132e+08    5306.9203    172.20814    3.8321448        31638 
   35040    272.79277 2.5973574e+08 2.5974132e+08    5308.4164    171.36128    3.8351448        31638 
   35050    271.84573 2.5973574e+08 2.5974132e+08    5309.9696    170.55594    3.8381448        31638 
   35060    270.87112 2.5973574e+08 2.5974132e+08    5311.5727    169.78864    3.8411448        31638 
   35070    269.85122 2.5973574e+08 2.5974132e+08    5313.2181    169.06027    3.8441448        31638 
   35080    268.76753 2.5973574e+08 2.5974132e+08    5314.8981    168.36876    3.8471448        31638 
   35090    267.60242 2.5973574e+08 2.5974132e+08    5316.6053    167.70991    3.8501448        31638 
   35100    266.34226 2.5973574e+08 2.5974132e+08    5318.3327    167.08127    3.8531448        31638 
   35110    264.97653 2.5973574e+08 2.5974132e+08    5320.0744    166.47868    3.8561448        31638 
   35120    263.49795 2.5973574e+08 2.5974132e+08     5321.826    165.89593    3.8591448        31638 
   35130    261.90348 2.5973574e+08 2.5974132e+08    5323.5847    165.33211    3.8621448        31638 
   35140    260.19234 2.5973574e+08 2.5974132e+08    5325.3495    164.78626    3.8651448        31638 
   35150    258.36437 2.5973574e+08 2.5974132e+08    5327.1208     164.2558    3.8681448        31638 
   35160    256.42295 2.5973574e+08 2.5974132e+08    5328.9002    163.73822    3.8711448        31638 
   35170    254.37789 2.5973574e+08 2.5974132e+08    5330.6906    163.23451    3.8741448        31638 
   35180    252.24441 2.5973574e+08 2.5974132e+08    5332.4956    162.74321    3.8771448        31638 
   35190    250.03927 2.5973574e+08 2.5974132e+08    5334.3192    162.25712    3.8801448        31638 
   35200    247.78125 2.5973574e+08 2.5974132e+08    5336.1655    161.77002    3.8831448        31638 
   35210    245.49136 2.5973574e+08 2.5974132e+08    5338.0381    161.27471    3.8861448        31638 
   35220    243.19155 2.5973574e+08 2.5974132e+08    5339.9396    160.76431    3.8891448        31638 
   35230    240.90349 2.5973574e+08 2.5974132e+08    5341.8713    160.23138    3.8921448        31638 
   35240    238.64709 2.5973574e+08 2.5974132e+08    5343.8332    159.66995    3.8951448        31638 
   35250    236.43819 2.5973574e+08 2.5974132e+08     5345.824    159.07909    3.8981448        31638 
   35260    234.28659 2.5973574e+08 2.5974132e+08    5347.8409    158.45863    3.9011448        31638 
   35270    232.19645 2.5973574e+08 2.5974132e+08    5349.8795    157.81162    3.9041448        31638 
   35280    230.16645 2.5973574e+08 2.5974132e+08     5351.934    157.14323    3.9071448        31638 
   35290     228.1894 2.5973574e+08 2.5974132e+08    5353.9974     156.4621    3.9101448        31638 
   35300    226.25403 2.5973574e+08 2.5974132e+08    5356.0613    155.77941    3.9131448        31638 
   35310    224.34636 2.5973574e+08 2.5974132e+08    5358.1166     155.1062    3.9161448        31638 
   35320    222.45038 2.5973574e+08 2.5974132e+08    5360.1536    154.45238    3.9191448        31638 
   35330    220.54881 2.5973574e+08 2.5974132e+08    5362.1622    153.82999    3.9221448        31638 
   35340    218.62495 2.5973574e+08 2.5974132e+08    5364.1324    153.25031    3.9251448        31638 
   35350    216.66392 2.5973574e+08 2.5974132e+08    5366.0542     152.7261    3.9281448        31638 
   35360    214.65303 2.5973574e+08 2.5974132e+08    5367.9181    152.26974    3.9311448        31638 
   35370     212.5816 2.5973574e+08 2.5974132e+08    5369.7152     151.8945    3.9341448        31638 
   35380    210.44157 2.5973574e+08 2.5974132e+08    5371.4377    151.61241    3.9371448        31638 
   35390    208.22772 2.5973574e+08 2.5974132e+08    5373.0791    151.43249    3.9401448        31638 
   35400    205.93776 2.5973574e+08 2.5974132e+08    5374.6337    151.36372    3.9431448        31638 
   35410    203.57317 2.5973574e+08 2.5974132e+08    5376.0974    151.41253    3.9461448        31638 
   35420    201.13847 2.5973574e+08 2.5974132e+08    5377.4671    151.58308    3.9491448        31638 
   35430    198.64091 2.5973574e+08 2.5974132e+08     5378.741    151.87886    3.9521448        31638 
   35440    196.09074 2.5973574e+08 2.5974132e+08    5379.9187    152.30055    3.9551448        31638 
   35450     193.5016 2.5973575e+08 2.5974132e+08     5381.001    152.84416    3.9581448        31638 
   35460    190.88952 2.5973575e+08 2.5974132e+08    5381.9904     153.5043    3.9611448        31638 
   35470    188.27113 2.5973575e+08 2.5974132e+08    5382.8906    154.27686    3.9641448        31638 
   35480    185.66184 2.5973575e+08 2.5974132e+08    5383.7071    155.15671    3.9671448        31638 
   35490    183.07504 2.5973575e+08 2.5974132e+08    5384.4463    156.13613    3.9701448        31638 
   35500    180.52288 2.5973576e+08 2.5974132e+08    5385.1154    157.20386    3.9731448        31638 
   35510    178.01652 2.5973576e+08 2.5974132e+08    5385.7223    158.34558    3.9761448        31638 
   35520    175.56535 2.5973576e+08 2.5974132e+08    5386.2755    159.54263    3.9791448        31638 
   35530    173.17711 2.5973576e+08 2.5974132e+08    5386.7837    160.77444    3.9821448        31638 
   35540    170.85886 2.5973576e+08 2.5974132e+08    5387.2565    162.02331    3.9851448        31638 
   35550    168.61615 2.5973576e+08 2.5974132e+08    5387.7043    163.27115    3.9881448        31638 
   35560    166.45269 2.5973577e+08 2.5974132e+08    5388.1384    164.50164    3.9911448        31638 
   35570    164.36974 2.5973577e+08 2.5974132e+08    5388.5712    165.69839    3.9941448        31638 
   35580    162.36424 2.5973577e+08 2.5974132e+08    5389.0157    166.84518    3.9971448        31638 
   35590    160.42758 2.5973577e+08 2.5974132e+08    5389.4853     167.9306    4.0001448        31638 
   35600    158.54734 2.5973577e+08 2.5974132e+08    5389.9939    168.94557    4.0031448        31638 
   35610    156.71043 2.5973577e+08 2.5974132e+08    5390.5554    169.88064    4.0061448        31638 
   35620    154.90512 2.5973577e+08 2.5974132e+08    5391.1844     170.7248    4.0091448        31638 
   35630    153.12085 2.5973578e+08 2.5974132e+08    5391.8953    171.46637    4.0121448        31638 
   35640    151.34717 2.5973578e+08 2.5974132e+08    5392.7028    172.09265    4.0151448        31638 
   35650    149.57403 2.5973578e+08 2.5974132e+08    5393.6207    172.59281    4.0181448        31638 
   35660    147.79298 2.5973578e+08 2.5974132e+08    5394.6619    172.96244    4.0211448        31638 
   35670    145.99964 2.5973578e+08 2.5974132e+08    5395.8381    173.19926    4.0241448        31638 
   35680    144.19537 2.5973578e+08 2.5974132e+08    5397.1594    173.29816    4.0271448        31638 
   35690    142.38774 2.5973578e+08 2.5974132e+08    5398.6343    173.25239    4.0301448        31638 
   35700    140.58629 2.5973578e+08 2.5974132e+08    5400.2692      173.047    4.0331448        31638 
   35710    138.79604 2.5973578e+08 2.5974132e+08    5402.0675    172.66592    4.0361448        31638 
   35720    137.01896 2.5973578e+08 2.5974132e+08    5404.0298    172.09634    4.0391448        31638 
   35730    135.25719 2.5973578e+08 2.5974132e+08    5406.1536    171.32917    4.0421448        31638 
   35740    133.51626 2.5973578e+08 2.5974132e+08     5408.434    170.35823    4.0451448        31638 
   35750    131.80866 2.5973578e+08 2.5974132e+08    5410.8638    169.17611    4.0481448        31638 
   35760     130.1522 2.5973578e+08 2.5974132e+08    5413.4343    167.77683    4.0511448        31638 
   35770     128.5619 2.5973578e+08 2.5974132e+08    5416.1352    166.15792    4.0541448        31638 
   35780    127.04361 2.5973577e+08 2.5974132e+08    5418.9541    164.32374    4.0571448        31638 
   35790    125.59754 2.5973577e+08 2.5974132e+08    5421.8762    162.29054    4.0601448        31638 
   35800    124.21774 2.5973577e+08 2.5974132e+08    5424.8846    160.08768    4.0631448        31638 
   35810     122.8962 2.5973577e+08 2.5974132e+08    5427.9611    157.74991    4.0661448        31638 
   35820     121.6278 2.5973577e+08 2.5974132e+08     5431.086    155.30972    4.0691448        31638 
   35830    120.40916 2.5973577e+08 2.5974132e+08    5434.2387    152.79715    4.0721448        31638 
   35840    119.23484 2.5973576e+08 2.5974132e+08    5437.3976    150.24196    4.0751448        31638 
   35850     118.0979 2.5973576e+08 2.5974132e+08      5440.54    147.67565    4.0781448        31638 
   35860    116.99222 2.5973576e+08 2.5974132e+08    5443.6423     145.1312    4.0811448        31638 
   35870    115.91198 2.5973576e+08 2.5974132e+08    5446.6798    142.64592    4.0841448        31638 
   35880    114.85312 2.5973576e+08 2.5974132e+08    5449.6278    140.25663    4.0871448        31638 
   35890    113.81438 2.5973575e+08 2.5974132e+08    5452.4612    137.99817    4.0901448        31638 
   35900    112.79557 2.5973575e+08 2.5974132e+08    5455.1557    135.89732    4.0931448        31638 
   35910    111.79818 2.5973575e+08 2.5974132e+08    5457.6875    133.96976    4.0961448        31638 
   35920    110.82551 2.5973575e+08 2.5974132e+08    5460.0331    132.22759    4.0991448        31638 
   35930    109.88226 2.5973575e+08 2.5974132e+08    5462.1701    130.68262    4.1021448        31638 
   35940     108.9747 2.5973575e+08 2.5974132e+08    5464.0769    129.34797    4.1051448        31638 
   35950    108.10907 2.5973575e+08 2.5974132e+08    5465.7335     128.2348    4.1081448        31638 
   35960    107.29209 2.5973575e+08 2.5974132e+08    5467.1214    127.34808    4.1111448        31638 
   35970    106.53192 2.5973575e+08 2.5974132e+08    5468.2246     126.6881    4.1141448        31638 
   35980    105.83778 2.5973575e+08 2.5974132e+08    5469.0297    126.25134    4.1171448        31638 
   35990    105.21902 2.5973575e+08 2.5974132e+08    5469.5264    126.03179    4.1201448        31638 
   36000    104.68177 2.5973575e+08 2.5974132e+08    5469.7077    126.04161    4.1231448        31638 
   36010    104.22677 2.5973575e+08 2.5974132e+08    5469.5698     126.2417    4.1261448        31638 
   36020    103.86203 2.5973575e+08 2.5974132e+08    5469.1122     126.6616    4.1291448        31638 
   36030    103.58869 2.5973575e+08 2.5974132e+08    5468.3376    127.30463    4.1321448        31638 
   36040    103.40505 2.5973575e+08 2.5974132e+08    5467.2522    128.17591    4.1351448        31638 
   36050    103.30657 2.5973575e+08 2.5974132e+08    5465.8653    129.27848    4.1381448        31638 
   36060    103.28714 2.5973575e+08 2.5974132e+08    5464.1893    130.61226    4.1411448        31638 
   36070    103.33905 2.5973576e+08 2.5974132e+08    5462.2393    132.17399    4.1441448        31638 
   36080    103.45337 2.5973576e+08 2.5974132e+08    5460.0331    133.95509    4.1471448        31638 
   36090    103.62057 2.5973576e+08 2.5974132e+08    5457.5912    135.94422    4.1501448        31638 
   36100    103.83003 2.5973576e+08 2.5974132e+08    5454.9363    138.12368    4.1531448        31638 
   36110    104.06979 2.5973576e+08 2.5974132e+08     5452.093    140.47464    4.1561448        31638 
   36120    104.32706 2.5973577e+08 2.5974132e+08    5449.0874    142.97737    4.1591448        31638 
   36130    104.58928 2.5973577e+08 2.5974132e+08     5445.947    145.60793    4.1621448        31638 
   36140    104.84491 2.5973577e+08 2.5974132e+08    5442.6997    148.33985    4.1651448        31638 
   36150     105.0848 2.5973578e+08 2.5974132e+08    5439.3742    151.14374    4.1681448        31638 
   36160    105.30323 2.5973578e+08 2.5974132e+08     5435.999    153.98994    4.1711448        31638 
   36170    105.49858 2.5973578e+08 2.5974132e+08    5432.6028     156.8492    4.1741448        31638 
   36180    105.67338 2.5973579e+08 2.5974132e+08    5429.2142    159.69093    4.1771448        31638 
   36190     105.8342 2.5973579e+08 2.5974132e+08    5425.8611    162.48231    4.1801448        31638 
   36200    105.99078 2.5973579e+08 2.5974132e+08    5422.5707    165.18498    4.1831448        31638 
   36210    106.15521 2.597358e+08 2.5974132e+08    5419.3688    167.75441    4.1861448        31638 
   36220    106.34156 2.597358e+08 2.5974132e+08    5416.2797    170.14756    4.1891448        31638 
   36230     106.5646 2.597358e+08 2.5974132e+08    5413.3262    172.32717    4.1921448        31638 
   36240    106.83914 2.597358e+08 2.5974132e+08    5410.5295    174.26548    4.1951448        31638 
   36250    107.18063 2.5973581e+08 2.5974132e+08    5407.9092    175.94595    4.1981448        31638 
   36260    107.60448 2.5973581e+08 2.5974132e+08    5405.4826    177.36085    4.2011448        31638 
   36270    108.12464 2.5973581e+08 2.5974132e+08    5403.2654    178.50657    4.2041448        31638 
   36280    108.75233 2.5973581e+08 2.5974132e+08    5401.2703    179.37842    4.2071448        31638 
   36290    109.49313 2.5973581e+08 2.5974132e+08    5399.5069     179.9694    4.2101448        31638 
   36300    110.34749 2.5973581e+08 2.5974132e+08    5397.9816    180.27329    4.2131448        31638 
   36310    111.31227 2.5973581e+08 2.5974132e+08    5396.6969    180.28753    4.2161448        31638 
   36320    112.38024 2.5973581e+08 2.5974132e+08    5395.6518    180.01248    4.2191448        31638 
   36330    113.53994 2.5973581e+08 2.5974132e+08     5394.842    179.45291    4.2221448        31638 
   36340     114.7769 2.5973581e+08 2.5974132e+08    5394.2594    178.61643    4.2251448        31638 
   36350     116.0752 2.5973581e+08 2.5974132e+08    5393.8928    177.51442    4.2281448        31638 
   36360    117.41877 2.5973581e+08 2.5974132e+08    5393.7282    176.16349    4.2311448        31638 
   36370    118.79064 2.5973581e+08 2.5974132e+08    5393.7488    174.58452    4.2341448        31638 
   36380    120.17401 2.5973581e+08 2.5974132e+08    5393.9359    172.80269    4.2371448        31638 
   36390    121.55398 2.5973581e+08 2.5974132e+08    5394.2687    170.84717    4.2401448        31638 
   36400    122.91795 2.597358e+08 2.5974132e+08    5394.7251    168.74802    4.2431448        31638 
   36410    124.25581 2.597358e+08 2.5974132e+08    5395.2816    166.53576    4.2461448        31638 
   36420    125.56133 2.597358e+08 2.5974132e+08    5395.9135    164.24047    4.2491448        31638 
   36430     126.8319 2.597358e+08 2.5974132e+08    5396.5954    161.89012    4.2521448        31638 
   36440     128.0672 2.597358e+08 2.5974132e+08    5397.3009    159.51284    4.2551448        31638 
   36450    129.26999 2.5973579e+08 2.5974132e+08    5398.0035    157.13547    4.2581448        31638 
   36460     130.4474 2.5973579e+08 2.5974132e+08    5398.6768     154.7849    4.2611448        31638 
   36470    131.61074 2.5973579e+08 2.5974132e+08    5399.2947    152.48747    4.2641448        31638 
   36480    132.77206 2.5973579e+08 2.5974132e+08    5399.8318    150.26697    4.2671448        31638 
   36490    133.94244 2.5973579e+08 2.5974132e+08    5400.2642    148.14719    4.2701448        31638 
   36500    135.13355 2.5973579e+08 2.5974132e+08    5400.5696    146.14782    4.2731448        31638 
   36510    136.35655 2.5973578e+08 2.5974132e+08    5400.7274    144.28485    4.2761448        31638 
   36520    137.62072 2.5973578e+08 2.5974132e+08    5400.7188    142.57445    4.2791448        31638 
   36530     138.9331 2.5973578e+08 2.5974132e+08     5400.527       141.03    4.2821448        31638 
   36540    140.29889 2.5973578e+08 2.5974132e+08    5400.1372    139.66193    4.2851448        31638 
   36550     141.7217 2.5973578e+08 2.5974132e+08    5399.5366    138.47948    4.2881448        31638 
   36560    143.20184 2.5973578e+08 2.5974132e+08     5398.714    137.48828    4.2911448        31638 
   36570    144.73571 2.5973578e+08 2.5974132e+08    5397.6606    136.69327    4.2941448        31638 
   36580    146.31672 2.5973578e+08 2.5974132e+08    5396.3694    136.10188    4.2971448        31638 
   36590    147.93678 2.5973578e+08 2.5974132e+08    5394.8354    135.72308    4.3001448        31638 
   36600    149.58776 2.5973578e+08 2.5974132e+08    5393.0556    135.56503    4.3031448        31638 
   36610    151.26133 2.5973578e+08 2.5974132e+08    5391.0294    135.63452    4.3061448        31638 
   36620    152.94884 2.5973578e+08 2.5974132e+08    5388.7586    135.93507    4.3091448        31638 
   36630    154.64195 2.5973578e+08 2.5974132e+08    5386.2478    136.46724    4.3121448        31638 
   36640    156.33283 2.5973578e+08 2.5974132e+08    5383.5044    137.22767    4.3151448        31638 
   36650    158.01332 2.5973578e+08 2.5974132e+08    5380.5387    138.20956    4.3181448        31638 
   36660    159.67585 2.5973578e+08 2.5974132e+08    5377.3637    139.40373    4.3211448        31638 
   36670    161.31445 2.5973579e+08 2.5974132e+08    5373.9953    140.79982    4.3241448        31638 
   36680    162.92463 2.5973579e+08 2.5974132e+08    5370.4513     142.3859    4.3271448        31638 
   36690    164.50347 2.5973579e+08 2.5974132e+08    5366.7516    144.14903    4.3301448        31638 
   36700     166.0495 2.5973579e+08 2.5974132e+08    5362.9175    146.07407    4.3331448        31638 
   36710    167.56328 2.5973579e+08 2.5974132e+08    5358.9711     148.1422    4.3361448        31638 
   36720    169.04688 2.597358e+08 2.5974132e+08    5354.9353    150.33102    4.3391448        31638 
   36730    170.50379 2.597358e+08 2.5974132e+08    5350.8331    152.61338    4.3421448        31638 
   36740     171.9383 2.597358e+08 2.5974132e+08    5346.6877    154.96097    4.3451448        31638 
   36750     173.3548 2.5973581e+08 2.5974132e+08    5342.5221    157.34599    4.3481448        31638 
   36760    174.75751 2.5973581e+08 2.5974132e+08    5338.3587    159.74078    4.3511448        31638 
   36770    176.15037 2.5973581e+08 2.5974132e+08    5334.2194    162.11755    4.3541448        31638 
   36780    177.53726 2.5973581e+08 2.5974132e+08    5330.1249    164.44977    4.3571448        31638 
   36790    178.92192 2.5973582e+08 2.5974132e+08     5326.095    166.71216    4.3601448        31638 
   36800    180.30756 2.5973582e+08 2.5974132e+08    5322.1486    168.88143    4.3631448        31638 
   36810    181.69627 2.5973582e+08 2.5974132e+08    5318.3035    170.93641    4.3661448        31638 
   36820    183.08853 2.5973582e+08 2.5974132e+08    5314.5763    172.85904    4.3691448        31638 
   36830    184.48307 2.5973583e+08 2.5974132e+08    5310.9826    174.63246    4.3721448        31638 
   36840    185.87657 2.5973583e+08 2.5974132e+08    5307.5366    176.24038    4.3751448        31638 
   36850    187.26395 2.5973583e+08 2.5974132e+08    5304.2509      177.669    4.3781448        31638 
   36860    188.63913 2.5973583e+08 2.5974132e+08    5301.1368    178.90693    4.3811448        31638 
   36870    189.99637 2.5973583e+08 2.5974132e+08    5298.2035    179.94488    4.3841448        31638 
   36880    191.33041 2.5973583e+08 2.5974132e+08    5295.4588    180.77742    4.3871448        31638 
   36890    192.63686 2.5973584e+08 2.5974132e+08    5292.9084    181.40292    4.3901448        31638 
   36900    193.91276 2.5973584e+08 2.5974132e+08    5290.5566    181.82216    4.3931448        31638 
   36910    195.15673 2.5973584e+08 2.5974132e+08    5288.4055    182.03815    4.3961448        31638 
   36920    196.36933 2.5973584e+08 2.5974132e+08    5286.4552    182.05674    4.3991448        31638 
   36930     197.5524 2.5973584e+08 2.5974132e+08    5284.7041    181.88689    4.4021448        31638 
   36940     198.7091 2.5973584e+08 2.5974132e+08    5283.1487    181.53754    4.4051448        31638 
   36950    199.84415 2.5973584e+08 2.5974132e+08    5281.7839    181.02006    4.4081448        31638 
   36960    200.96369 2.5973584e+08 2.5974132e+08    5280.6027    180.34806    4.4111448        31638 
   36970    202.07471 2.5973584e+08 2.5974132e+08    5279.5969    179.53602    4.4141448        31638 
   36980    203.18458 2.5973584e+08 2.5974132e+08     5278.757     178.5974    4.4171448        31638 
   36990    204.30103 2.5973584e+08 2.5974132e+08    5278.0721     177.5461    4.4201448        31638 
   37000    205.40679 2.5973584e+08 2.5974132e+08    5277.5307    177.72535    4.4231448        31638 
   37010    206.21059 2.5973584e+08 2.5974132e+08    5277.1247    176.02771    4.4261448        31638 
   37020    207.10935 2.5973584e+08 2.5974132e+08    5276.8441     174.6088    4.4291448        31638 
   37030    208.05664 2.5973584e+08 2.5974132e+08    5276.6742    173.19948    4.4321448        31638 
   37040    209.04347 2.5973584e+08 2.5974132e+08    5276.5999    171.73505    4.4351448        31638 
   37050    210.05924 2.5973583e+08 2.5974132e+08    5276.6059     170.2216    4.4381448        31638 
   37060    211.09463 2.5973583e+08 2.5974132e+08    5276.6767    168.66334    4.4411448        31638 
   37070    212.13945 2.5973583e+08 2.5974132e+08    5276.7971    167.06358    4.4441448        31638 
   37080    213.18178 2.5973583e+08 2.5974132e+08     5276.952    165.43792    4.4471448        31638 
   37090     214.2099 2.5973583e+08 2.5974132e+08    5277.1265    163.80362    4.4501448        31638 
   37100    215.21306 2.5973583e+08 2.5974132e+08    5277.3062     162.1784    4.4531448        31638 
   37110    216.18142 2.5973583e+08 2.5974132e+08    5277.4774    160.58338    4.4561448        31638 
   37120    217.10465 2.5973583e+08 2.5974132e+08    5277.6278    159.03921    4.4591448        31638 
   37130    217.97298 2.5973583e+08 2.5974132e+08    5277.7461    157.55987    4.4621448        31638 
   37140    218.77785 2.5973582e+08 2.5974132e+08    5277.8225    156.15662    4.4651448        31638 
   37150    219.51426 2.5973582e+08 2.5974132e+08    5277.8482    154.84061    4.4681448        31638 
   37160     220.1811 2.5973582e+08 2.5974132e+08    5277.8154    153.62291    4.4711448        31638 
   37170    220.77944 2.5973582e+08 2.5974132e+08     5277.717    152.51541    4.4741448        31638 
   37180      221.312 2.5973582e+08 2.5974132e+08    5277.5462    151.52823    4.4771448        31638 
   37190    221.78426 2.5973582e+08 2.5974132e+08    5277.2966    150.67161    4.4801448        31638 
   37200    222.20383 2.5973582e+08 2.5974132e+08    5276.9622    149.95522    4.4831448        31638 
   37210    222.57985 2.5973582e+08 2.5974132e+08    5276.5379    149.38189    4.4861448        31638 
   37220    222.92246 2.5973582e+08 2.5974132e+08    5276.0194     148.9491    4.4891448        31638 
   37230    223.24281 2.5973582e+08 2.5974132e+08    5275.4029    148.65222    4.4921448        31638 
   37240    223.55178 2.5973582e+08 2.5974132e+08    5274.6859     148.4875    4.4951448        31638 
   37250    223.85937 2.5973582e+08 2.5974132e+08    5273.8667    148.45063    4.4981448        31638 
   37260    224.17373 2.5973582e+08 2.5974132e+08    5272.9448    148.53582    4.5011448        31638 
   37270    224.50134 2.5973582e+08 2.5974132e+08    5271.9204    148.73472    4.5041448        31638 
   37280    224.84721 2.5973583e+08 2.5974132e+08    5270.7949    149.03752    4.5071448        31638 
   37290    225.21416 2.5973583e+08 2.5974132e+08    5269.5707    149.43616    4.5101448        31638 
   37300    225.60198 2.5973583e+08 2.5974132e+08    5268.2511    149.92454    4.5131448        31638 
   37310    226.00687 2.5973583e+08 2.5974132e+08    5266.8405     150.4945    4.5161448        31638 
   37320    226.42264 2.5973583e+08 2.5974132e+08    5265.3439    151.13891    4.5191448        31638 
   37330      226.841 2.5973583e+08 2.5974132e+08    5263.7672    151.85253    4.5221448        31638 
   37340    227.25266 2.5973583e+08 2.5974132e+08    5262.1172     152.6318    4.5251448        31638 
   37350    227.64706 2.5973583e+08 2.5974132e+08    5260.4016    153.47544    4.5281448        31638 
   37360    228.01196 2.5973583e+08 2.5974132e+08    5258.6288    154.38202    4.5311448        31638 
   37370    228.33441 2.5973584e+08 2.5974132e+08    5256.8083    155.34882    4.5341448        31638 
   37380    228.60252 2.5973584e+08 2.5974132e+08    5254.9501    156.37171    4.5371448        31638 
   37390    228.80604 2.5973584e+08 2.5974132e+08    5253.0648    157.44557    4.5401448        31638 
   37400    228.93723 2.5973584e+08 2.5974132e+08    5251.1634    158.56532    4.5431448        31638 
   37410    228.99127 2.5973584e+08 2.5974132e+08    5249.2576    159.72524    4.5461448        31638 
   37420    228.96591 2.5973584e+08 2.5974132e+08    5247.3593    160.91897    4.5491448        31638 
   37430    228.86088 2.5973585e+08 2.5974132e+08    5245.4806    162.13986    4.5521448        31638 
   37440    228.67711 2.5973585e+08 2.5974132e+08    5243.6336    163.38118    4.5551448        31638 
   37450    228.41746 2.5973585e+08 2.5974132e+08      5241.83    164.63372    4.5581448        31638 
   37460    228.08784 2.5973585e+08 2.5974132e+08    5240.0817    165.88445    4.5611448        31638 
   37470     227.6974 2.5973585e+08 2.5974132e+08    5238.3996    167.11813    4.5641448        31638 
   37480    227.25672 2.5973586e+08 2.5974132e+08    5236.7945    168.31702    4.5671448        31638 
   37490    226.77634 2.5973586e+08 2.5974132e+08    5235.2765    169.46357    4.5701448        31638 
   37500    226.26711 2.5973586e+08 2.5974132e+08    5233.8553    170.54172    4.5731448        31638 
   37510    225.73976 2.5973586e+08 2.5974132e+08    5232.5404    171.53577    4.5761448        31638 
   37520    225.20356 2.5973586e+08 2.5974132e+08    5231.3402    172.43212    4.5791448        31638 
   37530    224.66576 2.5973587e+08 2.5974132e+08    5230.2631    173.22006    4.5821448        31638 
   37540    224.13156 2.5973587e+08 2.5974132e+08    5229.3163     173.8936    4.5851448        31638 
   37550     223.6043 2.5973587e+08 2.5974132e+08    5228.5064    174.44888    4.5881448        31638 
   37560    223.08529 2.5973587e+08 2.5974132e+08    5227.8391    174.87783    4.5911448        31638 
   37570    222.57261 2.5973587e+08 2.5974132e+08    5227.3189    175.17489    4.5941448        31638 
   37580    222.06161 2.5973587e+08 2.5974132e+08    5226.9488    175.33594    4.5971448        31638 
   37590    221.54582 2.5973587e+08 2.5974132e+08    5226.7306    175.36024    4.6001448        31638 
   37600    221.01782 2.5973587e+08 2.5974132e+08    5226.6652    175.25123    4.6031448        31638 
   37610    220.46924 2.5973587e+08 2.5974132e+08    5226.7522    175.01632    4.6061448        31638 
   37620    219.89114 2.5973587e+08 2.5974132e+08    5226.9901    174.66337    4.6091448        31638 
   37630    219.27415 2.5973587e+08 2.5974132e+08    5227.3761    174.20264    4.6121448        31638 
   37640    218.60887 2.5973587e+08 2.5974132e+08    5227.9064     173.6442    4.6151448        31638 
   37650    217.88707 2.5973587e+08 2.5974132e+08    5228.5759    172.99758    4.6181448        31638 
   37660    217.10199 2.5973587e+08 2.5974132e+08    5229.3782    172.26988    4.6211448        31638 
   37670    216.24859 2.5973587e+08 2.5974132e+08    5230.3058    171.47098    4.6241448        31638 
   37680    215.32295 2.5973587e+08 2.5974132e+08    5231.3505    170.61078    4.6271448        31638 
   37690    214.32216 2.5973587e+08 2.5974132e+08    5232.5027     169.6967    4.6301448        31638 
   37700     213.2455 2.5973587e+08 2.5974132e+08    5233.7525     168.7363    4.6331448        31638 
   37710    212.09521 2.5973587e+08 2.5974132e+08    5235.0889     167.7393    4.6361448        31638 
   37720    210.87567 2.5973587e+08 2.5974132e+08    5236.5001    166.71673    4.6391448        31638 
   37730    209.59189 2.5973587e+08 2.5974132e+08    5237.9743    165.68025    4.6421448        31638 
   37740    208.25021 2.5973587e+08 2.5974132e+08     5239.499    164.64146    4.6451448        31638 
   37750    206.85717 2.5973587e+08 2.5974132e+08    5241.0622    163.61031    4.6481448        31638 
   37760    205.41953 2.5973587e+08 2.5974132e+08    5242.6518    162.59555    4.6511448        31638 
   37770    203.94518 2.5973587e+08 2.5974132e+08     5244.256    161.60398    4.6541448        31638 
   37780     202.4427 2.5973587e+08 2.5974132e+08    5245.8636    160.64254    4.6571448        31638 
   37790    200.92032 2.5973587e+08 2.5974132e+08     5247.464    159.71739    4.6601448        31638 
   37800    199.38543 2.5973587e+08 2.5974132e+08    5249.0474    158.83539    4.6631448        31638 
   37810    197.84435 2.5973587e+08 2.5974132e+08    5250.6047    158.00279    4.6661448        31638 
   37820    196.30176 2.5973587e+08 2.5974132e+08    5252.1278    157.22634    4.6691448        31638 
   37830    194.75986 2.5973587e+08 2.5974132e+08    5253.6091    156.51213    4.6721448        31638 
   37840    193.21994 2.5973587e+08 2.5974132e+08    5255.0414    155.86737    4.6751448        31638 
   37850    191.68187 2.5973587e+08 2.5974132e+08    5256.4188    155.29758    4.6781448        31638 
   37860    190.14406 2.5973587e+08 2.5974132e+08    5257.7362     154.8092    4.6811448        31638 
   37870    188.60336 2.5973587e+08 2.5974132e+08    5258.9893    154.40807    4.6841448        31638 
   37880    187.05624 2.5973587e+08 2.5974132e+08    5260.1754    154.10144    4.6871448        31638 
   37890    185.49955 2.5973587e+08 2.5974132e+08    5261.2928    153.89333    4.6901448        31638 
   37900    183.93011 2.5973587e+08 2.5974132e+08    5262.3412    153.78475    4.6931448        31638 
   37910    182.34277 2.5973588e+08 2.5974132e+08    5263.3216    153.77595    4.6961448        31638 
   37920    180.73113 2.5973588e+08 2.5974132e+08    5264.2362    153.86587    4.6991448        31638 
   37930    179.09002 2.5973588e+08 2.5974132e+08    5265.0881    154.05252    4.7021448        31638 
   37940    177.41475 2.5973588e+08 2.5974132e+08    5265.8812    154.33238    4.7051448        31638 
   37950    175.70081 2.5973588e+08 2.5974132e+08    5266.6204    154.70092    4.7081448        31638 
   37960    173.94386 2.5973588e+08 2.5974132e+08     5267.311      155.156    4.7111448        31638 
   37970    172.14065 2.5973588e+08 2.5974132e+08    5267.9592     155.6929    4.7141448        31638 
   37980    170.28612 2.5973588e+08 2.5974132e+08    5268.5719    156.30614    4.7171448        31638 
   37990    168.37345 2.5973588e+08 2.5974132e+08    5269.1565     156.9892    4.7201448        31638 
   38000    166.40218 2.5973588e+08 2.5974132e+08    5269.7212    157.69858    4.7231448        31638 
   38010    164.38122 2.5973589e+08 2.5974132e+08    5270.2746    158.50174    4.7261448        31638 
   38020     162.3037 2.5973589e+08 2.5974132e+08    5270.8257    159.33205    4.7291448        31638 
   38030    160.17435 2.5973589e+08 2.5974132e+08     5271.384    160.18241    4.7321448        31638 
   38040    157.99873 2.5973589e+08 2.5974132e+08    5271.9591    161.04125    4.7351448        31638 
   38050    155.78163 2.5973589e+08 2.5974132e+08    5272.5608    161.89664    4.7381448        31638 
   38060    153.52737 2.5973589e+08 2.5974132e+08    5273.1986    162.73722    4.7411448        31638 
   38070    151.24134 2.597359e+08 2.5974132e+08     5273.882    163.55419    4.7441448        31638 
   38080    148.92916 2.597359e+08 2.5974132e+08    5274.6196    164.34091    4.7471448        31638 
   38090    146.59243 2.597359e+08 2.5974132e+08    5275.4199     165.0887    4.7501448        31638 
   38100    144.23019 2.597359e+08 2.5974132e+08    5276.2905    165.78664    4.7531448        31638 
   38110    141.84622 2.597359e+08 2.5974132e+08    5277.2384    166.42476    4.7561448        31638 
   38120    139.45198 2.597359e+08 2.5974132e+08      5278.27    166.99171    4.7591448        31638 
   38130    137.05533 2.597359e+08 2.5974132e+08    5279.3907    167.47604    4.7621448        31638 
   38140    134.66233 2.5973591e+08 2.5974132e+08    5280.6055    167.87069    4.7651448        31638 
   38150    132.27846 2.5973591e+08 2.5974132e+08    5281.9184    168.17079    4.7681448        31638 
   38160    129.90527 2.5973591e+08 2.5974132e+08    5283.3325    168.37398    4.7711448        31638 
   38170    127.54309 2.5973591e+08 2.5974132e+08    5284.8501    168.47708    4.7741448        31638 
   38180    125.19189 2.5973591e+08 2.5974132e+08    5286.4723    168.47908    4.7771448        31638 
   38190    122.85276 2.5973591e+08 2.5974132e+08    5288.1995    168.37954    4.7801448        31638 
   38200    120.52954 2.5973591e+08 2.5974132e+08    5290.0311    168.17683    4.7831448        31638 
   38210    118.22264 2.5973591e+08 2.5974132e+08    5291.9657    167.86976    4.7861448        31638 
   38220    115.92718 2.5973591e+08 2.5974132e+08    5294.0009    167.45871    4.7891448        31638 
   38230    113.63851 2.5973591e+08 2.5974132e+08    5296.1334    166.94947    4.7921448        31638 
   38240     111.3546 2.5973591e+08 2.5974132e+08    5298.3589    166.34834    4.7951448        31638 
   38250    109.07439 2.5973591e+08 2.5974132e+08    5300.6719     165.6629    4.7981448        31638 
   38260    106.79285 2.5973591e+08 2.5974132e+08    5303.0665     164.9053    4.8011448        31638 
   38270    104.50209 2.5973591e+08 2.5974132e+08    5305.5353    164.08838    4.8041448        31638 
   38280    102.19679 2.5973591e+08 2.5974132e+08    5308.0702    163.22746    4.8071448        31638 
   38290    99.877587 2.5973591e+08 2.5974132e+08     5310.662    162.33258    4.8101448        31638 
   38300    97.546738 2.5973591e+08 2.5974132e+08    5313.3009    161.40694    4.8131448        31638 
   38310    95.205647 2.5973591e+08 2.5974132e+08    5315.9768    160.45458    4.8161448        31638 
   38320    92.856359 2.5973591e+08 2.5974132e+08    5318.6789    159.47834    4.8191448        31638 
   38330    90.502805 2.5973591e+08 2.5974132e+08    5321.3963    158.48048    4.8221448        31638 
   38340    88.150125 2.5973591e+08 2.5974132e+08    5324.1181    157.46439    4.8251448        31638 
   38350    85.801925 2.5973591e+08 2.5974132e+08    5326.8336    156.43476    4.8281448        31638 
   38360    83.459772 2.5973591e+08 2.5974132e+08    5329.5322    155.39703    4.8311448        31638 
   38370    81.126352 2.5973591e+08 2.5974132e+08    5332.2038    154.36166    4.8341448        31638 
   38380    78.807286 2.5973591e+08 2.5974132e+08    5334.8386    153.33926    4.8371448        31638 
   38390    76.510397 2.5973591e+08 2.5974132e+08    5337.4271    152.33957    4.8401448        31638 
   38400    74.243562 2.5973591e+08 2.5974132e+08    5339.9607    151.37058    4.8431448        31638 
   38410    72.014775 2.5973591e+08 2.5974132e+08    5342.4311    150.44116    4.8461448        31638 
   38420    69.831197 2.5973591e+08 2.5974132e+08    5344.8307    149.55992    4.8491448        31638 
   38430    67.698988 2.5973591e+08 2.5974132e+08    5347.1526    148.73543    4.8521448        31638 
   38440    65.623635 2.5973591e+08 2.5974132e+08    5349.3902    147.97711    4.8551448        31638 
   38450    63.610527 2.5973591e+08 2.5974132e+08    5351.5381    147.29548    4.8581448        31638 
   38460    61.663484 2.5973591e+08 2.5974132e+08    5353.5915    146.69515    4.8611448        31638 
   38470    59.785558 2.5973591e+08 2.5974132e+08    5355.5464    146.17665    4.8641448        31638 
   38480    57.976516 2.5973591e+08 2.5974132e+08    5357.3999     145.7429    4.8671448        31638 
   38490    56.232798 2.5973591e+08 2.5974132e+08    5359.1496    145.39564    4.8701448        31638 
   38500    54.549265 2.5973591e+08 2.5974132e+08    5360.7941     145.1342    4.8731448        31638 
   38510    52.922376 2.5973591e+08 2.5974132e+08    5362.3328    144.95632    4.8761448        31638 
   38520    51.349113 2.5973591e+08 2.5974132e+08    5363.7658    144.85912    4.8791448        31638 
   38530    49.823286 2.5973591e+08 2.5974132e+08     5365.094    144.83777    4.8821448        31638 
   38540     48.33749 2.5973591e+08 2.5974132e+08    5366.3191    144.88941    4.8851448        31638 
   38550     46.88527 2.5973591e+08 2.5974132e+08    5367.4434    145.01196    4.8881448        31638 
   38560    45.460656 2.5973591e+08 2.5974132e+08      5368.47    145.20295    4.8911448        31638 
   38570    44.057945 2.5973591e+08 2.5974132e+08    5369.4028    145.45852    4.8941448        31638 
   38580    42.672369 2.5973591e+08 2.5974132e+08    5370.2463    145.77507    4.8971448        31638 
   38590    41.299939 2.5973591e+08 2.5974132e+08    5371.0056    146.15045    4.9001448        31638 
   38600    39.937731 2.5973591e+08 2.5974132e+08    5371.6867    146.58123    4.9031448        31638 
   38610    38.583808 2.5973591e+08 2.5974132e+08    5372.2961    147.06371    4.9061448        31638 
   38620    37.237651 2.5973591e+08 2.5974132e+08    5372.8408    147.59261    4.9091448        31638 
   38630     35.90075 2.5973591e+08 2.5974132e+08    5373.3283    148.15953    4.9121448        31638 
   38640     34.57627 2.5973591e+08 2.5974132e+08    5373.7664    148.75502    4.9151448        31638 
   38650    33.267783 2.5973591e+08 2.5974132e+08    5374.1634    149.36744    4.9181448        31638 
   38660    31.978854 2.5973591e+08 2.5974132e+08    5374.5273    149.98488    4.9211448        31638 
   38670    30.713319 2.5973592e+08 2.5974132e+08    5374.8663    150.59558    4.9241448        31638 
   38680     29.47762 2.5973592e+08 2.5974132e+08    5375.1881    151.18767    4.9271448        31638 
   38690    28.281032 2.5973592e+08 2.5974132e+08    5375.5002    151.75055    4.9301448        31638 
   38700    27.131617 2.5973592e+08 2.5974132e+08    5375.8093     152.2738    4.9331448        31638 
   38710    26.034976 2.5973592e+08 2.5974132e+08    5376.1218    152.74823    4.9361448        31638 
   38720    24.996076 2.5973592e+08 2.5974132e+08    5376.4432    153.16767    4.9391448        31638 
   38730    24.019464 2.5973592e+08 2.5974132e+08    5376.7785    153.52657    4.9421448        31638 
   38740    23.108445 2.5973592e+08 2.5974132e+08    5377.1321    153.81878    4.9451448        31638 
   38750    22.264916 2.5973592e+08 2.5974132e+08    5377.5078    154.04053    4.9481448        31638 
   38760    21.489509 2.5973592e+08 2.5974132e+08    5377.9087    154.18843    4.9511448        31638 
   38770    20.781796 2.5973592e+08 2.5974132e+08     5378.337    154.25912    4.9541448        31638 
   38780    20.140458 2.5973592e+08 2.5974132e+08    5378.7945    154.25087    4.9571448        31638 
   38790    19.563492 2.5973592e+08 2.5974132e+08     5379.282    154.16321    4.9601448        31638 
   38800    19.048336 2.5973592e+08 2.5974132e+08    5379.7995    153.99752    4.9631448        31638 
   38810     18.59193 2.5973592e+08 2.5974132e+08    5380.3459     153.7558    4.9661448        31638 
   38820    18.190929 2.5973592e+08 2.5974132e+08    5380.9193    153.44132    4.9691448        31638 
   38830    17.841873 2.5973592e+08 2.5974132e+08    5381.5167    153.05826    4.9721448        31638 
   38840    17.541286 2.5973592e+08 2.5974132e+08     5382.134     152.6115    4.9751448        31638 
   38850    17.285821 2.5973592e+08 2.5974132e+08    5382.7663    152.10663    4.9781448        31638 
   38860    17.072343 2.5973592e+08 2.5974132e+08    5383.4076    151.54931    4.9811448        31638 
   38870    16.897978 2.5973592e+08 2.5974132e+08    5384.0513    150.94614    4.9841448        31638 
   38880     16.76019 2.5973592e+08 2.5974132e+08    5384.6899    150.30469    4.9871448        31638 
   38890    16.656804 2.5973592e+08 2.5974132e+08    5385.3157    149.63356    4.9901448        31638 
   38900    16.585976 2.5973592e+08 2.5974132e+08    5385.9202    148.94285    4.9931448        31638 
   38910    16.546197 2.5973592e+08 2.5974132e+08     5386.495    148.24299    4.9961448        31638 
   38920    16.536308 2.5973592e+08 2.5974132e+08    5387.0316    147.54473    4.9991448        31638 
   38930    16.555486 2.5973592e+08 2.5974132e+08    5387.5212    146.85853    5.0021448        31638 
   38940    16.603221 2.5973592e+08 2.5974132e+08    5387.9554    146.19525    5.0051448        31638 
   38950    16.679259 2.5973592e+08 2.5974132e+08    5388.3259    145.56572    5.0081448        31638 
   38960    16.783561 2.5973592e+08 2.5974132e+08    5388.6245    144.97938    5.0111448        31638 
   38970    16.916247 2.5973592e+08 2.5974132e+08    5388.8435    144.44475    5.0141448        31638 
   38980    17.077588 2.5973591e+08 2.5974132e+08    5388.9755    143.97013    5.0171448        31638 
   38990    17.267979 2.5973591e+08 2.5974132e+08    5389.0138    143.56266    5.0201448        31638 
   39000    17.488098 2.5973591e+08 2.5974132e+08    5388.9521    143.18808    5.0231448        31638 
   39010    17.742066 2.5973591e+08 2.5974132e+08    5388.7848    142.94587    5.0261448        31638 
   39020    18.025785 2.5973591e+08 2.5974132e+08    5388.5071    142.77646    5.0291448        31638 
   39030     18.34032 2.5973591e+08 2.5974132e+08    5388.1151    142.69089    5.0321448        31638 
   39040    18.686474 2.5973591e+08 2.5974132e+08    5387.6059    142.69221    5.0351448        31638 
   39050    19.065159 2.5973591e+08 2.5974132e+08    5386.9775    142.78047    5.0381448        31638 
   39060     19.47729 2.5973592e+08 2.5974132e+08    5386.2289    142.95461    5.0411448        31638 
   39070    19.923686 2.5973592e+08 2.5974132e+08    5385.3605    143.21193    5.0441448        31638 
   39080    20.405079 2.5973592e+08 2.5974132e+08    5384.3734    143.54952    5.0471448        31638 
   39090    20.922243 2.5973592e+08 2.5974132e+08    5383.2701    143.96293    5.0501448        31638 
   39100    21.476094 2.5973592e+08 2.5974132e+08    5382.0542    144.44721    5.0531448        31638 
   39110    22.067598 2.5973592e+08 2.5974132e+08    5380.7299    144.99758    5.0561448        31638 
   39120    22.697732 2.5973592e+08 2.5974132e+08    5379.3028    145.60894    5.0591448        31638 
   39130    23.367432 2.5973592e+08 2.5974132e+08     5377.779    146.27613    5.0621448        31638 
   39140    24.077413 2.5973592e+08 2.5974132e+08    5376.1656    146.99461    5.0651448        31638 
   39150    24.827866 2.5973592e+08 2.5974132e+08    5374.4703    147.75923    5.0681448        31638 
   39160    25.618132 2.5973592e+08 2.5974132e+08    5372.7014    148.56457    5.0711448        31638 
   39170    26.446409 2.5973592e+08 2.5974132e+08     5370.868    149.40587    5.0741448        31638 
   39180    27.310086 2.5973592e+08 2.5974132e+08    5368.9796    150.27832    5.0771448        31638 
   39190    28.206422 2.5973593e+08 2.5974132e+08     5367.046    151.17578    5.0801448        31638 
   39200    29.132265 2.5973593e+08 2.5974132e+08    5365.0773      152.091    5.0831448        31638 
   39210    30.084016 2.5973593e+08 2.5974132e+08    5363.0838    153.01704    5.0861448        31638 
   39220    31.058226 2.5973593e+08 2.5974132e+08    5361.0756    153.94559    5.0891448        31638 
   39230    32.051729 2.5973593e+08 2.5974132e+08    5359.0627    154.86747    5.0921448        31638 
   39240    33.061305 2.5973593e+08 2.5974132e+08    5357.0548     155.7736    5.0951448        31638 
   39250    34.084098 2.5973593e+08 2.5974132e+08    5355.0612    156.65423    5.0981448        31638 
   39260    35.117402 2.5973593e+08 2.5974132e+08    5353.0908    157.49947    5.1011448        31638 
   39270    36.158476 2.5973593e+08 2.5974132e+08    5351.1521    158.29946    5.1041448        31638 
   39280    37.204922 2.5973593e+08 2.5974132e+08     5349.253    159.04623    5.1071448        31638 
   39290    38.255044 2.5973594e+08 2.5974132e+08    5347.4008    159.73173    5.1101448        31638 
   39300    39.308036 2.5973594e+08 2.5974132e+08    5345.6024    160.34753    5.1131448        31638 
   39310    40.363575 2.5973594e+08 2.5974132e+08    5343.8637    160.88612    5.1161448        31638 
   39320    41.421377 2.5973594e+08 2.5974132e+08      5342.19    161.34092    5.1191448        31638 
   39330    42.481385 2.5973594e+08 2.5974132e+08    5340.5858    161.70601    5.1221448        31638 
   39340    43.544222 2.5973594e+08 2.5974132e+08    5339.0545    161.97759    5.1251448        31638 
   39350    44.611275 2.5973594e+08 2.5974132e+08    5337.5989    162.15437    5.1281448        31638 
   39360    45.683906 2.5973594e+08 2.5974132e+08    5336.2203    162.23734    5.1311448        31638 
   39370    46.763585 2.5973594e+08 2.5974132e+08    5334.9195     162.2299    5.1341448        31638 
   39380    47.852295 2.5973594e+08 2.5974132e+08     5333.696    162.13649    5.1371448        31638 
   39390    48.951983 2.5973594e+08 2.5974132e+08    5332.5481    161.96161    5.1401448        31638 
   39400    50.063667 2.5973594e+08 2.5974132e+08    5331.4734    161.70893    5.1431448        31638 
   39410    51.188369 2.5973594e+08 2.5974132e+08    5330.4685    161.38213    5.1461448        31638 
   39420    52.325961 2.5973594e+08 2.5974132e+08    5329.5288    160.98555    5.1491448        31638 
   39430    53.475299 2.5973594e+08 2.5974132e+08    5328.6489    160.52386    5.1521448        31638 
   39440    54.634902 2.5973594e+08 2.5974132e+08    5327.8227    160.00159    5.1551448        31638 
   39450    55.802844 2.5973594e+08 2.5974132e+08    5327.0432    159.42418    5.1581448        31638 
   39460    56.977441 2.5973594e+08 2.5974132e+08    5326.3028    158.79791    5.1611448        31638 
   39470    58.157022 2.5973594e+08 2.5974132e+08    5325.5934    158.13012    5.1641448        31638 
   39480    59.339841 2.5973594e+08 2.5974132e+08    5324.9065    157.43029    5.1671448        31638 
   39490    60.523307 2.5973594e+08 2.5974132e+08    5324.2332    156.70878    5.1701448        31638 
   39500    61.704886 2.5973594e+08 2.5974132e+08    5323.5645    155.97512    5.1731448        31638 
   39510    62.881921 2.5973594e+08 2.5974132e+08    5322.8912      155.238    5.1761448        31638 
   39520    64.051183 2.5973593e+08 2.5974132e+08    5322.2044     154.5058    5.1791448        31638 
   39530    65.209188 2.5973593e+08 2.5974132e+08    5321.4955    153.78748    5.1821448        31638 
   39540    66.354184 2.5973593e+08 2.5974132e+08    5320.7561    153.09438    5.1851448        31638 
   39550    67.486387 2.5973593e+08 2.5974132e+08    5319.9786    152.43769    5.1881448        31638 
   39560     68.60626 2.5973593e+08 2.5974132e+08    5319.1556    151.82725    5.1911448        31638 
   39570    69.713218 2.5973593e+08 2.5974132e+08    5318.2805     151.2714    5.1941448        31638 
   39580    70.805711 2.5973593e+08 2.5974132e+08    5317.3471    150.77798    5.1971448        31638 
   39590    71.881539 2.5973593e+08 2.5974132e+08      5316.35    150.35415    5.2001448        31638 
   39600    72.939564 2.5973593e+08 2.5974132e+08    5315.2845    150.00805    5.2031448        31638 
   39610    73.980207 2.5973593e+08 2.5974132e+08    5314.1468    149.74675    5.2061448        31638 
   39620    75.005356 2.5973593e+08 2.5974132e+08    5312.9339    149.57451    5.2091448        31638 
   39630    76.016385 2.5973593e+08 2.5974132e+08    5311.6433    149.49322    5.2121448        31638 
   39640    77.013146 2.5973593e+08 2.5974132e+08    5310.2739    149.50241    5.2151448        31638 
   39650    77.994757 2.5973593e+08 2.5974132e+08    5308.8252     149.6013    5.2181448        31638 
   39660    78.960914 2.5973593e+08 2.5974132e+08    5307.2977    149.79004    5.2211448        31638 
   39670    79.911947 2.5973594e+08 2.5974132e+08    5305.6929    150.06909    5.2241448        31638 
   39680    80.848534 2.5973594e+08 2.5974132e+08    5304.0135    150.43708    5.2271448        31638 
   39690    81.770876 2.5973594e+08 2.5974132e+08    5302.2626    150.89151    5.2301448        31638 
   39700    82.677665 2.5973594e+08 2.5974132e+08    5300.4446    151.42751    5.2331448        31638 
   39710    83.566878 2.5973594e+08 2.5974132e+08    5298.5646    152.03889    5.2361448        31638 
   39720    84.437153 2.5973594e+08 2.5974132e+08    5296.6286      152.719    5.2391448        31638 
   39730    85.287983 2.5973594e+08 2.5974132e+08    5294.6435    153.46216    5.2421448        31638 
   39740    86.119536 2.5973594e+08 2.5974132e+08    5292.6167    154.26181    5.2451448        31638 
   39750    86.932172 2.5973594e+08 2.5974132e+08    5290.5565    155.11163    5.2481448        31638 
   39760    87.726315 2.5973594e+08 2.5974132e+08    5288.4716    156.00477    5.2511448        31638 
   39770    88.502424 2.5973595e+08 2.5974132e+08    5286.3711    156.93413    5.2541448        31638 
   39780    89.261029 2.5973595e+08 2.5974132e+08    5284.2649    157.88947    5.2571448        31638 
   39790    90.002746 2.5973595e+08 2.5974132e+08    5282.1626    158.86165    5.2601448        31638 
   39800    90.728055 2.5973595e+08 2.5974132e+08    5280.0746    159.84077    5.2631448        31638 
   39810    91.438628 2.5973595e+08 2.5974132e+08    5278.0109    160.81582    5.2661448        31638 
   39820    92.136166 2.5973595e+08 2.5974132e+08    5275.9817    161.77907    5.2691448        31638 
   39830    92.822098 2.5973595e+08 2.5974132e+08    5273.9967    162.72196    5.2721448        31638 
   39840    93.497093 2.5973596e+08 2.5974132e+08    5272.0656    163.63302    5.2751448        31638 
   39850    94.162177 2.5973596e+08 2.5974132e+08    5270.1974    164.50232    5.2781448        31638 
   39860    94.819219 2.5973596e+08 2.5974132e+08    5268.4007    165.31944    5.2811448        31638 
   39870    95.469822 2.5973596e+08 2.5974132e+08    5266.6834      166.076    5.2841448        31638 
   39880    96.114987 2.5973596e+08 2.5974132e+08    5265.0528    166.76446    5.2871448        31638 
   39890    96.755124 2.5973596e+08 2.5974132e+08    5263.5154    167.37792    5.2901448        31638 
   39900    97.390351 2.5973596e+08 2.5974132e+08    5262.0768    167.90966    5.2931448        31638 
   39910    98.019901 2.5973596e+08 2.5974132e+08    5260.7418    168.35228    5.2961448        31638 
   39920    98.641869 2.5973596e+08 2.5974132e+08    5259.5143    168.70126    5.2991448        31638 
   39930    99.254091 2.5973596e+08 2.5974132e+08    5258.3971    168.95481    5.3021448        31638 
   39940    99.853668 2.5973596e+08 2.5974132e+08    5257.3925    169.11176    5.3051448        31638 
   39950    100.43733 2.5973596e+08 2.5974132e+08    5256.5018    169.17105    5.3081448        31638 
   39960    101.00216 2.5973596e+08 2.5974132e+08    5255.7256    169.13164    5.3111448        31638 
   39970    101.54559 2.5973596e+08 2.5974132e+08    5255.0634    168.99505    5.3141448        31638 
   39980    102.06571 2.5973596e+08 2.5974132e+08    5254.5139    168.76427    5.3171448        31638 
   39990    102.56055 2.5973596e+08 2.5974132e+08    5254.0747    168.44189    5.3201448        31638 
   40000     103.0273 2.5973596e+08 2.5974132e+08    5253.7423    168.07626    5.3231448        31638 
   40010    103.45603 2.5973596e+08 2.5974132e+08    5253.5127    167.56651    5.3261448        31638 
   40020    103.85472 2.5973596e+08 2.5974132e+08    5253.3809    166.99061    5.3291448        31638 
   40030    104.22298 2.5973596e+08 2.5974132e+08     5253.341    166.34766    5.3321448        31638 
   40040    104.56291 2.5973596e+08 2.5974132e+08    5253.3863    165.64252    5.3351448        31638 
   40050    104.87718 2.5973596e+08 2.5974132e+08    5253.5098    164.88344    5.3381448        31638 
   40060    105.16765 2.5973596e+08 2.5974132e+08    5253.7035    164.07856    5.3411448        31638 
   40070     105.4354 2.5973596e+08 2.5974132e+08    5253.9595    163.23524    5.3441448        31638 
   40080    105.68161 2.5973596e+08 2.5974132e+08    5254.2691    162.36242    5.3471448        31638 
   40090    105.90822 2.5973596e+08 2.5974132e+08    5254.6236    161.46895    5.3501448        31638 
   40100    106.11777 2.5973596e+08 2.5974132e+08    5255.0139    160.56073    5.3531448        31638 
   40110    106.31256 2.5973596e+08 2.5974132e+08     5255.431    159.64228    5.3561448        31638 
   40120    106.49451 2.5973596e+08 2.5974132e+08    5255.8653    158.71954    5.3591448        31638 
   40130     106.6654 2.5973596e+08 2.5974132e+08    5256.3074    157.79882    5.3621448        31638 
   40140     106.8271 2.5973596e+08 2.5974132e+08    5256.7478    156.88705    5.3651448        31638 
   40150    106.98095 2.5973596e+08 2.5974132e+08    5257.1774     155.9934    5.3681448        31638 
   40160    107.12755 2.5973596e+08 2.5974132e+08    5257.5872     155.1268    5.3711448        31638 
   40170    107.26639 2.5973596e+08 2.5974132e+08    5257.9689    154.29551    5.3741448        31638 
   40180    107.39616 2.5973596e+08 2.5974132e+08    5258.3145    153.50613    5.3771448        31638 
   40190    107.51591 2.5973595e+08 2.5974132e+08    5258.6165     152.7659    5.3801448        31638 
   40200    107.62517 2.5973595e+08 2.5974132e+08    5258.8682    152.08179    5.3831448        31638 
   40210    107.72307 2.5973595e+08 2.5974132e+08    5259.0636    151.45983    5.3861448        31638 
   40220    107.80795 2.5973595e+08 2.5974132e+08    5259.1973     150.9049    5.3891448        31638 
   40230    107.87755 2.5973595e+08 2.5974132e+08     5259.265    150.42145    5.3921448        31638 
   40240    107.93005 2.5973595e+08 2.5974132e+08    5259.2631    150.01405    5.3951448        31638 
   40250    107.96436 2.5973595e+08 2.5974132e+08    5259.1889    149.68789    5.3981448        31638 
   40260    107.98008 2.5973595e+08 2.5974132e+08    5259.0406     149.4471    5.4011448        31638 
   40270    107.97705 2.5973595e+08 2.5974132e+08    5258.8171    149.29378    5.4041448        31638 
   40280    107.95459 2.5973595e+08 2.5974132e+08    5258.5184    149.22817    5.4071448        31638 
   40290     107.9122 2.5973595e+08 2.5974132e+08     5258.145    149.24997    5.4101448        31638 
   40300    107.84989 2.5973596e+08 2.5974132e+08    5257.6984    149.35836    5.4131448        31638 
   40310    107.76816 2.5973596e+08 2.5974132e+08    5257.1808    149.55279    5.4161448        31638 
   40320    107.66763 2.5973596e+08 2.5974132e+08     5256.595    149.83193    5.4191448        31638 
   40330    107.54865 2.5973596e+08 2.5974132e+08    5255.9445    150.19165    5.4221448        31638 
   40340    107.41133 2.5973596e+08 2.5974132e+08    5255.2336    150.62642    5.4251448        31638 
   40350    107.25651 2.5973596e+08 2.5974132e+08    5254.4667    151.12897    5.4281448        31638 
   40360    107.08567 2.5973596e+08 2.5974132e+08    5253.6491     151.6935    5.4311448        31638 
   40370    106.90036 2.5973596e+08 2.5974132e+08    5252.7864    152.31626    5.4341448        31638 
   40380    106.70182 2.5973596e+08 2.5974132e+08    5251.8849    152.99125    5.4371448        31638 
   40390    106.49151 2.5973596e+08 2.5974132e+08    5250.9512      153.711    5.4401448        31638 
   40400    106.27081 2.5973596e+08 2.5974132e+08    5249.9923    154.46665    5.4431448        31638 
   40410    106.04124 2.5973597e+08 2.5974132e+08    5249.0153     155.2493    5.4461448        31638 
   40420    105.80416 2.5973597e+08 2.5974132e+08    5248.0276     156.0513    5.4491448        31638 
   40430    105.56064 2.5973597e+08 2.5974132e+08    5247.0366    156.86535    5.4521448        31638 
   40440    105.31143 2.5973597e+08 2.5974132e+08    5246.0502    157.68354    5.4551448        31638 
   40450    105.05705 2.5973597e+08 2.5974132e+08    5245.0761    158.49782    5.4581448        31638 
   40460    104.79832 2.5973597e+08 2.5974132e+08    5244.1219     159.2993    5.4611448        31638 
   40470    104.53605 2.5973597e+08 2.5974132e+08    5243.1952    160.07983    5.4641448        31638 
   40480    104.27128 2.5973597e+08 2.5974132e+08    5242.3031    160.83176    5.4671448        31638 
   40490    104.00519 2.5973598e+08 2.5974132e+08    5241.4523    161.54892    5.4701448        31638 
   40500    103.73896 2.5973598e+08 2.5974132e+08    5240.6494    162.22492    5.4731448        31638 
   40510    103.47347 2.5973598e+08 2.5974132e+08    5239.9006     162.8537    5.4761448        31638 
   40520    103.20886 2.5973598e+08 2.5974132e+08    5239.2115    163.42962    5.4791448        31638 
   40530    102.94484 2.5973598e+08 2.5974132e+08    5238.5873    163.94763    5.4821448        31638 
   40540    102.68083 2.5973598e+08 2.5974132e+08    5238.0326    164.40246    5.4851448        31638 
   40550    102.41604 2.5973598e+08 2.5974132e+08    5237.5511    164.78993    5.4881448        31638 
   40560    102.14964 2.5973598e+08 2.5974132e+08    5237.1462    165.10663    5.4911448        31638 
   40570    101.88052 2.5973598e+08 2.5974132e+08    5236.8205    165.35123    5.4941448        31638 
   40580    101.60714 2.5973598e+08 2.5974132e+08     5236.576    165.52332    5.4971448        31638 
   40590      101.328 2.5973598e+08 2.5974132e+08    5236.4143    165.62189    5.5001448        31638 
   40600     101.0415 2.5973598e+08 2.5974132e+08     5236.336    165.64651    5.5031448        31638 
   40610    100.74614 2.5973598e+08 2.5974132e+08     5236.341     165.5977    5.5061448        31638 
   40620    100.44072 2.5973598e+08 2.5974132e+08    5236.4287    165.47551    5.5091448        31638 
   40630    100.12429 2.5973598e+08 2.5974132e+08    5236.5976    165.28113    5.5121448        31638 
   40640    99.796267 2.5973598e+08 2.5974132e+08    5236.8456    165.01646    5.5151448        31638 
   40650    99.456504 2.5973598e+08 2.5974132e+08      5237.17    164.68466    5.5181448        31638 
   40660    99.105344 2.5973598e+08 2.5974132e+08    5237.5676    164.28906    5.5211448        31638 
   40670    98.743331 2.5973598e+08 2.5974132e+08    5238.0344    163.83347    5.5241448        31638 
   40680    98.371172 2.5973598e+08 2.5974132e+08     5238.566    163.32092    5.5271448        31638 
   40690    97.989822 2.5973598e+08 2.5974132e+08    5239.1574    162.75496    5.5301448        31638 
   40700    97.600425 2.5973598e+08 2.5974132e+08    5239.8031    162.14051    5.5331448        31638 
   40710    97.204377 2.5973598e+08 2.5974132e+08    5240.4974    161.48255    5.5361448        31638 
   40720    96.803338 2.5973598e+08 2.5974132e+08    5241.2339     160.7865    5.5391448        31638 
   40730    96.399179 2.5973598e+08 2.5974132e+08    5242.0061    160.05788    5.5421448        31638 
   40740    95.993806 2.5973598e+08 2.5974132e+08    5242.8072    159.30309    5.5451448        31638 
   40750    95.589152 2.5973598e+08 2.5974132e+08    5243.6301    158.52897    5.5481448        31638 
   40760     95.18706 2.5973598e+08 2.5974132e+08    5244.4679    157.74264    5.5511448        31638 
   40770    94.789041 2.5973598e+08 2.5974132e+08    5245.3134     156.9508    5.5541448        31638 
   40780    94.395916 2.5973598e+08 2.5974132e+08    5246.1594    156.15961    5.5571448        31638 
   40790     94.00787 2.5973598e+08 2.5974132e+08    5246.9989    155.37507    5.5601448        31638 
   40800    93.624772 2.5973598e+08 2.5974132e+08    5247.8252    154.60339    5.5631448        31638 
   40810    93.246249 2.5973598e+08 2.5974132e+08    5248.6316    153.84998    5.5661448        31638 
   40820     92.87158 2.5973598e+08 2.5974132e+08    5249.4117     153.1203    5.5691448        31638 
   40830    92.499612 2.5973598e+08 2.5974132e+08    5250.1594     152.4205    5.5721448        31638 
   40840    92.128841 2.5973598e+08 2.5974132e+08    5250.8691    151.75719    5.5751448        31638 
   40850    91.757545 2.5973598e+08 2.5974132e+08    5251.5354    151.13742    5.5781448        31638 
   40860    91.384035 2.5973598e+08 2.5974132e+08    5252.1534    150.56777    5.5811448        31638 
   40870     91.00676 2.5973598e+08 2.5974132e+08    5252.7187    150.05426    5.5841448        31638 
   40880    90.624266 2.5973598e+08 2.5974132e+08     5253.227     149.6024    5.5871448        31638 
   40890    90.235307 2.5973598e+08 2.5974132e+08    5253.6749     149.2164    5.5901448        31638 
   40900    89.838949 2.5973598e+08 2.5974132e+08    5254.0592    148.89912    5.5931448        31638 
   40910    89.434545 2.5973598e+08 2.5974132e+08    5254.3772    148.65261    5.5961448        31638 
   40920    89.021868 2.5973598e+08 2.5974132e+08    5254.6272    148.47848    5.5991448        31638 
   40930    88.601151 2.5973598e+08 2.5974132e+08    5254.8076    148.37704    5.6021448        31638 
   40940    88.172944 2.5973598e+08 2.5974132e+08    5254.9179    148.34768    5.6051448        31638 
   40950    87.738054 2.5973598e+08 2.5974132e+08    5254.9582    148.38913    5.6081448        31638 
   40960    87.297485 2.5973598e+08 2.5974132e+08     5254.929    148.49896    5.6111448        31638 
   40970    86.852396 2.5973598e+08 2.5974132e+08    5254.8317    148.67513    5.6141448        31638 
   40980    86.404016 2.5973598e+08 2.5974132e+08    5254.6684    148.91377    5.6171448        31638 
   40990    85.953645 2.5973598e+08 2.5974132e+08    5254.4416    149.21009    5.6201448        31638 
   41000    85.502746 2.5973598e+08 2.5974132e+08    5254.1546    149.55867    5.6231448        31638 
   41010    85.053275 2.5973598e+08 2.5974132e+08    5253.8111    149.95772    5.6261448        31638 
   41020    84.606687 2.5973598e+08 2.5974132e+08    5253.4152    150.40099    5.6291448        31638 
   41030    84.164265 2.5973598e+08 2.5974132e+08    5252.9716    150.88461    5.6321448        31638 
   41040      83.7269 2.5973598e+08 2.5974132e+08    5252.4853    151.40445    5.6351448        31638 
   41050    83.295182 2.5973599e+08 2.5974132e+08    5251.9616    151.95689    5.6381448        31638 
   41060    82.869363 2.5973599e+08 2.5974132e+08     5251.406    152.53797    5.6411448        31638 
   41070    82.449346 2.5973599e+08 2.5974132e+08    5250.8241    153.14327    5.6441448        31638 
   41080    82.034685 2.5973599e+08 2.5974132e+08     5250.222    153.76782    5.6471448        31638 
   41090    81.624508 2.5973599e+08 2.5974132e+08    5249.6055    154.40674    5.6501448        31638 
   41100    81.217696 2.5973599e+08 2.5974132e+08     5248.981     155.0541    5.6531448        31638 
   41110    80.813089 2.5973599e+08 2.5974132e+08    5248.3544    155.70383    5.6561448        31638 
   41120    80.409544 2.5973599e+08 2.5974132e+08    5247.7319    156.35063    5.6591448        31638 
   41130    80.005997 2.5973599e+08 2.5974132e+08    5247.1194    156.98878    5.6621448        31638 
   41140    79.601378 2.5973599e+08 2.5974132e+08    5246.5229    157.61287    5.6651448        31638 
   41150    79.194692  2.59736e+08 2.5974132e+08     5245.948    158.21723    5.6681448        31638 
   41160    78.785181  2.59736e+08 2.5974132e+08       5245.4    158.79533    5.6711448        31638 
   41170    78.372423  2.59736e+08 2.5974132e+08    5244.8841    159.34093    5.6741448        31638 
   41180    77.956296  2.59736e+08 2.5974132e+08    5244.4048    159.84852    5.6771448        31638 
   41190    77.536896  2.59736e+08 2.5974132e+08    5243.9668    160.31276    5.6801448        31638 
   41200    77.114497  2.59736e+08 2.5974132e+08    5243.5739    160.72944    5.6831448        31638 
   41210    76.689637  2.59736e+08 2.5974132e+08    5243.2298    161.09481    5.6861448        31638 
   41220    76.263153  2.59736e+08 2.5974132e+08    5242.9379    161.40599    5.6891448        31638 
   41230    75.836076  2.59736e+08 2.5974132e+08    5242.7009    161.66081    5.6921448        31638 
   41240    75.409438  2.59736e+08 2.5974132e+08    5242.5212    161.85856    5.6951448        31638 
   41250     74.98431  2.59736e+08 2.5974132e+08    5242.4006    161.99894    5.6981448        31638 
   41260    74.562124  2.59736e+08 2.5974132e+08    5242.3407    162.08192    5.7011448        31638 
   41270    74.144423  2.59736e+08 2.5974132e+08     5242.342     162.1082    5.7041448        31638 
   41280    73.732676  2.59736e+08 2.5974132e+08    5242.4048     162.0792    5.7071448        31638 
   41290    73.328253 2.5973601e+08 2.5974132e+08    5242.5288    161.99608    5.7101448        31638 
   41300    72.932389 2.5973601e+08 2.5974132e+08    5242.7127    161.85974    5.7131448        31638 
   41310    72.546018 2.5973601e+08 2.5974132e+08    5242.9549    161.67091    5.7161448        31638 
   41320    72.169754 2.5973601e+08 2.5974132e+08    5243.2533    161.43051    5.7191448        31638 
   41330    71.803868 2.5973601e+08 2.5974132e+08    5243.6052    161.13897    5.7221448        31638 
   41340    71.448261 2.5973601e+08 2.5974132e+08    5244.0075    160.79782    5.7251448        31638 
   41350    71.102437 2.5973601e+08 2.5974132e+08    5244.4568    160.40798    5.7281448        31638 
   41360    70.765532 2.5973601e+08 2.5974132e+08    5244.9492    159.97121    5.7311448        31638 
   41370    70.436306 2.5973601e+08 2.5974132e+08    5245.4808     159.4904    5.7341448        31638 
   41380    70.113322  2.59736e+08 2.5974132e+08    5246.0472    158.96919    5.7371448        31638 
   41390    69.794994  2.59736e+08 2.5974132e+08    5246.6437    158.41147    5.7401448        31638 
   41400    69.479637  2.59736e+08 2.5974132e+08    5247.2656    157.82106    5.7431448        31638 
   41410    69.165559  2.59736e+08 2.5974132e+08    5247.9078    157.20316    5.7461448        31638 
   41420    68.851144  2.59736e+08 2.5974132e+08     5248.565    156.56379    5.7491448        31638 
   41430    68.535088  2.59736e+08 2.5974132e+08    5249.2319    155.90884    5.7521448        31638 
   41440    68.216449  2.59736e+08 2.5974132e+08    5249.9029    155.24506    5.7551448        31638 
   41450    67.894673  2.59736e+08 2.5974132e+08    5250.5728    154.57873    5.7581448        31638 
   41460    67.569564  2.59736e+08 2.5974132e+08    5251.2361    153.91668    5.7611448        31638 
   41470    67.241249  2.59736e+08 2.5974132e+08    5251.8875    153.26586    5.7641448        31638 
   41480    66.910115  2.59736e+08 2.5974132e+08    5252.5221    152.63274    5.7671448        31638 
   41490    66.576735  2.59736e+08 2.5974132e+08     5253.135    152.02299    5.7701448        31638 
   41500    66.241876  2.59736e+08 2.5974132e+08    5253.7215    151.44193    5.7731448        31638 
   41510     65.90648  2.59736e+08 2.5974132e+08    5254.2772    150.89386    5.7761448        31638 
   41520    65.571579  2.59736e+08 2.5974132e+08    5254.7977    150.38289    5.7791448        31638 
   41530    65.238269  2.59736e+08 2.5974132e+08     5255.279    149.91258    5.7821448        31638 
   41540    64.907718  2.59736e+08 2.5974132e+08     5255.717    149.48498    5.7851448        31638 
   41550    64.581139  2.59736e+08 2.5974132e+08     5256.108    149.10209    5.7881448        31638 
   41560    64.259667  2.59736e+08 2.5974132e+08    5256.4482    148.76589    5.7911448        31638 
   41570    63.944317  2.59736e+08 2.5974132e+08    5256.7343    148.47855    5.7941448        31638 
   41580    63.635977  2.59736e+08 2.5974132e+08     5256.963    148.24199    5.7971448        31638 
   41590    63.335328  2.59736e+08 2.5974132e+08    5257.1318    148.05816    5.8001448        31638 
   41600    63.042925  2.59736e+08 2.5974132e+08    5257.2383    147.92808    5.8031448        31638 
   41610    62.759091  2.59736e+08 2.5974132e+08    5257.2809    147.85279    5.8061448        31638 
   41620    62.483934  2.59736e+08 2.5974132e+08    5257.2586    147.83281    5.8091448        31638 
   41630    62.217348  2.59736e+08 2.5974132e+08    5257.1711    147.86807    5.8121448        31638 
   41640    61.958985  2.59736e+08 2.5974132e+08    5257.0187    147.95815    5.8151448        31638 
   41650     61.70831  2.59736e+08 2.5974132e+08    5256.8025    148.10259    5.8181448        31638 
   41660    61.464534  2.59736e+08 2.5974132e+08    5256.5243    148.29975    5.8211448        31638 
   41670    61.226676  2.59736e+08 2.5974132e+08    5256.1864    148.54776    5.8241448        31638 
   41680    60.993646  2.59736e+08 2.5974132e+08    5255.7916    148.84509    5.8271448        31638 
   41690    60.764265  2.59736e+08 2.5974132e+08    5255.3436    149.19003    5.8301448        31638 
   41700    60.537326 2.5973601e+08 2.5974132e+08    5254.8461    149.58082    5.8331448        31638 
   41710    60.311592 2.5973601e+08 2.5974132e+08    5254.3034    150.01546    5.8361448        31638 
   41720    60.085954 2.5973601e+08 2.5974132e+08    5253.7201    150.49166    5.8391448        31638 
   41730    59.859504 2.5973601e+08 2.5974132e+08     5253.101    151.00766    5.8421448        31638 
   41740    59.631575 2.5973601e+08 2.5974132e+08    5252.4511    151.56089    5.8451448        31638 
   41750    59.401573 2.5973601e+08 2.5974132e+08    5251.7754    152.14758    5.8481448        31638 
   41760    59.168877 2.5973601e+08 2.5974132e+08    5251.0794    152.76249    5.8511448        31638 
   41770    58.932939 2.5973601e+08 2.5974132e+08    5250.3684    153.40017    5.8541448        31638 
   41780    58.693308 2.5973601e+08 2.5974132e+08    5249.6478    154.05429    5.8571448        31638 
   41790    58.449706 2.5973601e+08 2.5974132e+08    5248.9231    154.71738    5.8601448        31638 
   41800    58.202041 2.5973601e+08 2.5974132e+08    5248.1997    155.38194    5.8631448        31638 
   41810    57.950332 2.5973602e+08 2.5974132e+08    5247.4832    156.04101    5.8661448        31638 
   41820    57.694774 2.5973602e+08 2.5974132e+08    5246.7791    156.68755    5.8691448        31638 
   41830    57.435855 2.5973602e+08 2.5974132e+08    5246.0926    157.31405    5.8721448        31638 
   41840    57.174249 2.5973602e+08 2.5974132e+08     5245.429    157.91346    5.8751448        31638 
   41850    56.910828 2.5973602e+08 2.5974132e+08    5244.7935    158.47886    5.8781448        31638 
   41860    56.646682 2.5973602e+08 2.5974132e+08     5244.191    159.00462    5.8811448        31638 
   41870    56.383011 2.5973602e+08 2.5974132e+08    5243.6261    159.48623    5.8841448        31638 
   41880    56.121066 2.5973602e+08 2.5974132e+08    5243.1032     159.9193    5.8871448        31638 
   41890    55.862059 2.5973602e+08 2.5974132e+08    5242.6265    160.29977    5.8901448        31638 
   41900    55.607025 2.5973602e+08 2.5974132e+08    5242.1997    160.62475    5.8931448        31638 
   41910    55.356807 2.5973602e+08 2.5974132e+08    5241.8261    160.89185    5.8961448        31638 
   41920    55.112084 2.5973602e+08 2.5974132e+08    5241.5087    161.09955    5.8991448        31638 
   41930    54.873377 2.5973602e+08 2.5974132e+08    5241.2499    161.24744    5.9021448        31638 
   41940    54.641037 2.5973603e+08 2.5974132e+08    5241.0516    161.33555    5.9051448        31638 
   41950    54.415169 2.5973603e+08 2.5974132e+08    5240.9151    161.36476    5.9081448        31638 
   41960    54.195639 2.5973603e+08 2.5974132e+08    5240.8412    161.33651    5.9111448        31638 
   41970    53.982031 2.5973603e+08 2.5974132e+08    5240.8298    161.25317    5.9141448        31638 
   41980    53.773633 2.5973603e+08 2.5974132e+08    5240.8806    161.11695    5.9171448        31638 
   41990    53.569513 2.5973603e+08 2.5974132e+08    5240.9923    160.92962    5.9201448        31638 
   42000     53.36832 2.5973603e+08 2.5974132e+08    5241.1631    160.72286    5.9231448        31638 
   42010    53.165009 2.5973603e+08 2.5974132e+08    5241.3907     160.4296    5.9261448        31638 
   42020    52.963134 2.5973603e+08 2.5974132e+08    5241.6723     160.0982    5.9291448        31638 
   42030    52.761002 2.5973603e+08 2.5974132e+08    5242.0042    159.72533    5.9321448        31638 
   42040    52.557305 2.5973603e+08 2.5974132e+08    5242.3825    159.31118    5.9351448        31638 
   42050    52.350744 2.5973603e+08 2.5974132e+08    5242.8027    158.85714    5.9381448        31638 
   42060    52.140166 2.5973603e+08 2.5974132e+08    5243.2602    158.36459    5.9411448        31638 
   42070    51.924508 2.5973603e+08 2.5974132e+08    5243.7499    157.83597    5.9441448        31638 
   42080    51.702912 2.5973602e+08 2.5974132e+08    5244.2666    157.27468    5.9471448        31638 
   42090    51.474909 2.5973602e+08 2.5974132e+08     5244.805    156.68515    5.9501448        31638 
   42100    51.240587 2.5973602e+08 2.5974132e+08    5245.3595    156.07358    5.9531448        31638 
   42110    51.000437 2.5973602e+08 2.5974132e+08    5245.9246    155.44724    5.9561448        31638 
   42120    50.755216 2.5973602e+08 2.5974132e+08    5246.4951    154.81367    5.9591448        31638 
   42130    50.505766 2.5973602e+08 2.5974132e+08    5247.0654     154.1804    5.9621448        31638 
   42140    50.253135 2.5973602e+08 2.5974132e+08    5247.6303    153.55447    5.9651448        31638 
   42150    49.998581 2.5973602e+08 2.5974132e+08    5248.1847    152.94314    5.9681448        31638 
   42160    49.743426 2.5973602e+08 2.5974132e+08    5248.7239    152.35368    5.9711448        31638 
   42170    49.489079 2.5973602e+08 2.5974132e+08    5249.2429    151.79218    5.9741448        31638 
   42180    49.237028 2.5973602e+08 2.5974132e+08    5249.7374    151.26421    5.9771448        31638 
   42190    48.988713 2.5973602e+08 2.5974132e+08     5250.203    150.77496    5.9801448        31638 
   42200    48.745437 2.5973602e+08 2.5974132e+08    5250.6354    150.32745    5.9831448        31638 
   42210    48.508261 2.5973602e+08 2.5974132e+08    5251.0306    149.92381    5.9861448        31638 
   42220    48.277914 2.5973602e+08 2.5974132e+08    5251.3848    149.56586    5.9891448        31638 
   42230    48.054797 2.5973602e+08 2.5974132e+08    5251.6944    149.25507    5.9921448        31638 
   42240    47.838919 2.5973602e+08 2.5974132e+08    5251.9559    148.99264    5.9951448        31638 
   42250    47.629867 2.5973602e+08 2.5974132e+08    5252.1663     148.7793    5.9981448        31638 
   42260    47.426904 2.5973602e+08 2.5974132e+08    5252.3232    148.61551    6.0011448        31638 
   42270    47.229016 2.5973602e+08 2.5974132e+08    5252.4244    148.50195    6.0041448        31638 
   42280    47.034961 2.5973602e+08 2.5974132e+08    5252.4687    148.43948    6.0071448        31638 
   42290    46.843363 2.5973602e+08 2.5974132e+08    5252.4553    148.42805    6.0101448        31638 
   42300    46.652777 2.5973602e+08 2.5974132e+08    5252.3842     148.4678    6.0131448        31638 
   42310    46.461749 2.5973602e+08 2.5974132e+08    5252.2562     148.5585    6.0161448        31638 
   42320    46.268904 2.5973602e+08 2.5974132e+08    5252.0727    148.69912    6.0191448        31638 
   42330    46.073025 2.5973602e+08 2.5974132e+08    5251.8357    148.88823    6.0221448        31638 
   42340    45.873127 2.5973602e+08 2.5974132e+08    5251.5481    149.12434    6.0251448        31638 
   42350    45.668438 2.5973602e+08 2.5974132e+08     5251.213     149.4057    6.0281448        31638 
   42360    45.458433 2.5973602e+08 2.5974132e+08    5250.8342    149.73029    6.0311448        31638 
   42370    45.242861 2.5973603e+08 2.5974132e+08     5250.416    150.09587    6.0341448        31638 
   42380    45.021801 2.5973603e+08 2.5974132e+08    5249.9627    150.50024    6.0371448        31638 
   42390    44.795669 2.5973603e+08 2.5974132e+08    5249.4792    150.94036    6.0401448        31638 
   42400    44.565149 2.5973603e+08 2.5974132e+08    5248.9705    151.41312    6.0431448        31638 
   42410     44.33113 2.5973603e+08 2.5974132e+08    5248.4415    151.91456    6.0461448        31638 
   42420    44.094626 2.5973603e+08 2.5974132e+08    5247.8974    152.43992    6.0491448        31638 
   42430    43.856709 2.5973603e+08 2.5974132e+08    5247.3433    152.98367    6.0521448        31638 
   42440    43.618636 2.5973603e+08 2.5974132e+08    5246.7844     153.5394    6.0551448        31638 
   42450    43.381817 2.5973603e+08 2.5974132e+08    5246.2257    154.10105    6.0581448        31638 
   42460    43.147695 2.5973603e+08 2.5974132e+08     5245.672    154.66202    6.0611448        31638 
   42470    42.917713 2.5973603e+08 2.5974132e+08    5245.1283    155.21454    6.0641448        31638 
   42480     42.69288 2.5973603e+08 2.5974132e+08    5244.5992    155.75139    6.0671448        31638 
   42490    42.474003 2.5973603e+08 2.5974132e+08    5244.0889    156.26491    6.0701448        31638 
   42500    42.261975 2.5973604e+08 2.5974132e+08    5243.6016     156.7475    6.0731448        31638 
   42510    42.057197 2.5973604e+08 2.5974132e+08    5243.1414    157.19409    6.0761448        31638 
   42520    41.859629 2.5973604e+08 2.5974132e+08    5242.7119    157.59954    6.0791448        31638 
   42530    41.669052 2.5973604e+08 2.5974132e+08    5242.3167    157.95987    6.0821448        31638 
   42540    41.485116 2.5973604e+08 2.5974132e+08    5241.9589    158.27264    6.0851448        31638 
   42550    41.307242 2.5973604e+08 2.5974132e+08    5241.6415    158.53486    6.0881448        31638 
   42560    41.134549 2.5973604e+08 2.5974132e+08    5241.3671    158.74535    6.0911448        31638 
   42570    40.965869 2.5973604e+08 2.5974132e+08    5241.1378    158.90358    6.0941448        31638 
   42580    40.799979 2.5973604e+08 2.5974132e+08    5240.9554    159.00932    6.0971448        31638 
   42590    40.635813 2.5973604e+08 2.5974132e+08    5240.8213    159.06302    6.1001448        31638 
   42600     40.47251 2.5973604e+08 2.5974132e+08    5240.7362      159.066    6.1031448        31638 
   42610    40.309428 2.5973604e+08 2.5974132e+08    5240.7006    159.01983    6.1061448        31638 
   42620    40.146138 2.5973604e+08 2.5974132e+08    5240.7141    158.92575    6.1091448        31638 
   42630      39.9824 2.5973604e+08 2.5974132e+08    5240.7763    158.78594    6.1121448        31638 
   42640     39.81815 2.5973604e+08 2.5974132e+08    5240.8859    158.60313    6.1151448        31638 
   42650    39.653563 2.5973604e+08 2.5974132e+08    5241.0413    158.38019    6.1181448        31638 
   42660    39.489078 2.5973604e+08 2.5974132e+08    5241.2404    158.11927    6.1211448        31638 
   42670    39.325375 2.5973604e+08 2.5974132e+08    5241.4805    157.82252    6.1241448        31638 
   42680    39.163299 2.5973604e+08 2.5974132e+08    5241.7586    157.49226    6.1271448        31638 
   42690    39.003839 2.5973604e+08 2.5974132e+08     5242.071    157.13095    6.1301448        31638 
   42700    38.848089 2.5973604e+08 2.5974132e+08    5242.4137    156.74086    6.1331448        31638 
   42710      38.6972 2.5973604e+08 2.5974132e+08    5242.7825    156.32399    6.1361448        31638 
   42720    38.552321 2.5973604e+08 2.5974132e+08    5243.1727    155.88339    6.1391448        31638 
   42730    38.414507 2.5973604e+08 2.5974132e+08    5243.5795    155.42224    6.1421448        31638 
   42740     38.28469 2.5973604e+08 2.5974132e+08    5243.9979    154.94391    6.1451448        31638 
   42750    38.163637 2.5973604e+08 2.5974132e+08    5244.4228    154.45222    6.1481448        31638 
   42760    38.051904 2.5973604e+08 2.5974132e+08    5244.8492    153.95139    6.1511448        31638 
   42770    37.949815 2.5973604e+08 2.5974132e+08    5245.2722     153.4459    6.1541448        31638 
   42780    37.857471 2.5973604e+08 2.5974132e+08    5245.6869    152.94041    6.1571448        31638 
   42790    37.774769 2.5973604e+08 2.5974132e+08    5246.0886    152.43966    6.1601448        31638 
   42800    37.701374 2.5973604e+08 2.5974132e+08    5246.4729    151.94868    6.1631448        31638 
   42810    37.636742 2.5973604e+08 2.5974132e+08    5246.8355     151.4723    6.1661448        31638 
   42820    37.580126 2.5973604e+08 2.5974132e+08    5247.1726    151.01516    6.1691448        31638 
   42830    37.530629 2.5973604e+08 2.5974132e+08    5247.4805     150.5822    6.1721448        31638 
   42840    37.487244 2.5973604e+08 2.5974132e+08    5247.7559    150.17803    6.1751448        31638 
   42850    37.448933 2.5973604e+08 2.5974132e+08    5247.9958    149.80674    6.1781448        31638 
   42860    37.414672 2.5973604e+08 2.5974132e+08    5248.1977    149.47208    6.1811448        31638 
   42870    37.383516 2.5973604e+08 2.5974132e+08    5248.3591    149.17762    6.1841448        31638 
   42880    37.354665 2.5973604e+08 2.5974132e+08    5248.4782    148.92634    6.1871448        31638 
   42890    37.327485 2.5973604e+08 2.5974132e+08    5248.5532     148.7209    6.1901448        31638 
   42900     37.30151 2.5973604e+08 2.5974132e+08    5248.5827    148.56328    6.1931448        31638 
   42910    37.276493 2.5973604e+08 2.5974132e+08    5248.5659    148.45448    6.1961448        31638 
   42920    37.252397 2.5973604e+08 2.5974132e+08    5248.5019    148.39472    6.1991448        31638 
   42930    37.229439 2.5973604e+08 2.5974132e+08    5248.3904    148.38344    6.2021448        31638 
   42940    37.208045 2.5973604e+08 2.5974132e+08    5248.2315    148.41908    6.2051448        31638 
   42950    37.188775 2.5973604e+08 2.5974132e+08    5248.0257     148.4995    6.2081448        31638 
   42960    37.172312 2.5973604e+08 2.5974132e+08    5247.7738    148.62189    6.2111448        31638 
   42970     37.15944 2.5973604e+08 2.5974132e+08     5247.477    148.78314    6.2141448        31638 
   42980    37.150985 2.5973604e+08 2.5974132e+08    5247.1371    148.97997    6.2171448        31638 
   42990    37.147795 2.5973604e+08 2.5974132e+08    5246.7561    149.20912    6.2201448        31638 
   43000    37.150843 2.5973604e+08 2.5974132e+08    5246.3364    149.44167    6.2231448        31638 
   43010    37.163077 2.5973604e+08 2.5974132e+08    5245.8805    149.73334    6.2261448        31638 
   43020     37.18221 2.5973604e+08 2.5974132e+08    5245.3912    150.04202    6.2291448        31638 
   43030    37.209017 2.5973604e+08 2.5974132e+08    5244.8719    150.36949    6.2321448        31638 
   43040    37.243869 2.5973604e+08 2.5974132e+08    5244.3258    150.71432    6.2351448        31638 
   43050    37.287011 2.5973604e+08 2.5974132e+08    5243.7566    151.07387    6.2381448        31638 
   43060     37.33851 2.5973604e+08 2.5974132e+08    5243.1679    151.44546    6.2411448        31638 
   43070    37.398236 2.5973604e+08 2.5974132e+08    5242.5633    151.82637    6.2441448        31638 
   43080    37.465861 2.5973604e+08 2.5974132e+08    5241.9467     152.2135    6.2471448        31638 
   43090    37.540919 2.5973604e+08 2.5974132e+08    5241.3218    152.60393    6.2501448        31638 
   43100     37.62285 2.5973604e+08 2.5974132e+08    5240.6924     152.9943    6.2531448        31638 
   43110    37.711006 2.5973604e+08 2.5974132e+08    5240.0623    153.38071    6.2561448        31638 
   43120    37.804663 2.5973604e+08 2.5974132e+08    5239.4351    153.75969    6.2591448        31638 
   43130    37.903056 2.5973604e+08 2.5974132e+08    5238.8143    154.12794    6.2621448        31638 
   43140    38.005434 2.5973604e+08 2.5974132e+08    5238.2033     154.4824    6.2651448        31638 
   43150    38.111094 2.5973605e+08 2.5974132e+08    5237.6053     154.8203    6.2681448        31638 
   43160     38.21937 2.5973605e+08 2.5974132e+08    5237.0233    155.13917    6.2711448        31638 
   43170    38.329653 2.5973605e+08 2.5974132e+08      5236.46    155.43662    6.2741448        31638 
   43180      38.4414 2.5973605e+08 2.5974132e+08     5235.918    155.71079    6.2771448        31638 
   43190    38.554174 2.5973605e+08 2.5974132e+08    5235.3995    155.96011    6.2801448        31638 
   43200    38.667643 2.5973605e+08 2.5974132e+08    5234.9066    156.18319    6.2831448        31638 
   43210     38.78156 2.5973605e+08 2.5974132e+08    5234.4409      156.379    6.2861448        31638 
   43220    38.895782 2.5973605e+08 2.5974132e+08    5234.0039    156.54669    6.2891448        31638 
   43230    39.010308 2.5973605e+08 2.5974132e+08    5233.5966    156.68518    6.2921448        31638 
   43240    39.125304 2.5973605e+08 2.5974132e+08    5233.2198    156.79366    6.2951448        31638 
   43250    39.241094 2.5973605e+08 2.5974132e+08    5232.8738    156.87115    6.2981448        31638 
   43260    39.358101 2.5973605e+08 2.5974132e+08    5232.5587    156.91655    6.3011448        31638 
   43270    39.476802 2.5973605e+08 2.5974132e+08    5232.2741    156.92918    6.3041448        31638 
   43280    39.597739 2.5973605e+08 2.5974132e+08    5232.0196    156.90894    6.3071448        31638 
   43290    39.721522 2.5973605e+08 2.5974132e+08    5231.7941    156.85588    6.3101448        31638 
   43300     39.84874 2.5973605e+08 2.5974132e+08    5231.5965    156.77081    6.3131448        31638 
   43310    39.979882 2.5973605e+08 2.5974132e+08    5231.4254    156.65454    6.3161448        31638 
   43320    40.115354 2.5973605e+08 2.5974132e+08    5231.2794    156.50829    6.3191448        31638 
   43330    40.255486 2.5973605e+08 2.5974132e+08    5231.1566    156.33381    6.3221448        31638 
   43340    40.400443 2.5973605e+08 2.5974132e+08    5231.0552     156.1335    6.3251448        31638 
   43350    40.550237 2.5973605e+08 2.5974132e+08    5230.9731     155.9098    6.3281448        31638 
   43360    40.704749 2.5973605e+08 2.5974132e+08     5230.908    155.66581    6.3311448        31638 
   43370    40.863699 2.5973605e+08 2.5974132e+08    5230.8578    155.40466    6.3341448        31638 
   43380    41.026682 2.5973605e+08 2.5974132e+08      5230.82    155.12955    6.3371448        31638 
   43390    41.193188 2.5973605e+08 2.5974132e+08    5230.7921    154.84388    6.3401448        31638 
   43400     41.36268 2.5973605e+08 2.5974132e+08    5230.7717    154.55129    6.3431448        31638 
   43410    41.534545 2.5973605e+08 2.5974132e+08    5230.7559    154.25548    6.3461448        31638 
   43420    41.708062 2.5973605e+08 2.5974132e+08    5230.7422    153.96018    6.3491448        31638 
   43430    41.882485 2.5973605e+08 2.5974132e+08    5230.7278    153.66882    6.3521448        31638 
   43440    42.057047 2.5973605e+08 2.5974132e+08    5230.7099    153.38458    6.3551448        31638 
   43450    42.230953 2.5973605e+08 2.5974132e+08     5230.686     153.1103    6.3581448        31638 
   43460    42.403425 2.5973605e+08 2.5974132e+08    5230.6532    152.84843    6.3611448        31638 
   43470    42.573725 2.5973605e+08 2.5974132e+08    5230.6091    152.60112    6.3641448        31638 
   43480    42.741185 2.5973605e+08 2.5974132e+08    5230.5511    152.36995    6.3671448        31638 
   43490    42.905198 2.5973605e+08 2.5974132e+08     5230.477    152.15654    6.3701448        31638 
   43500    43.065212 2.5973605e+08 2.5974132e+08    5230.3846     151.9621    6.3731448        31638 
   43510    43.220802 2.5973605e+08 2.5974132e+08    5230.2719    151.78761    6.3761448        31638 
   43520    43.371746 2.5973605e+08 2.5974132e+08    5230.1371    151.63397    6.3791448        31638 
   43530    43.518036 2.5973605e+08 2.5974132e+08    5229.9788    151.50216    6.3821448        31638 
   43540    43.659821 2.5973605e+08 2.5974132e+08    5229.7957      151.393    6.3851448        31638 
   43550    43.797423 2.5973605e+08 2.5974132e+08    5229.5871    151.30754    6.3881448        31638 
   43560    43.931254 2.5973605e+08 2.5974132e+08    5229.3523    151.24671    6.3911448        31638 
   43570    44.061773 2.5973605e+08 2.5974132e+08     5229.091    151.21126    6.3941448        31638 
   43580    44.189451 2.5973605e+08 2.5974132e+08    5228.8034    151.20194    6.3971448        31638 
   43590    44.314739 2.5973605e+08 2.5974132e+08    5228.4897    151.21892    6.4001448        31638 
   43600    44.438041 2.5973605e+08 2.5974132e+08    5228.1506    151.26222    6.4031448        31638 
   43610    44.559652 2.5973605e+08 2.5974132e+08    5227.7869    151.33162    6.4061448        31638 
   43620    44.679843 2.5973605e+08 2.5974132e+08    5227.3998     151.4269    6.4091448        31638 
   43630     44.79883 2.5973605e+08 2.5974132e+08    5226.9904    151.54764    6.4121448        31638 
   43640    44.916673 2.5973605e+08 2.5974132e+08    5226.5603    151.69347    6.4151448        31638 
   43650    45.033348 2.5973605e+08 2.5974132e+08    5226.1111    151.86383    6.4181448        31638 
   43660    45.148754 2.5973605e+08 2.5974132e+08    5225.6445    152.05769    6.4211448        31638 
   43670    45.262682 2.5973605e+08 2.5974132e+08    5225.1627    152.27393    6.4241448        31638 
   43680    45.374792 2.5973605e+08 2.5974132e+08    5224.6675    152.51091    6.4271448        31638 
   43690    45.484572 2.5973605e+08 2.5974132e+08    5224.1611    152.76654    6.4301448        31638 
   43700    45.591361 2.5973605e+08 2.5974132e+08    5223.6456     153.0383    6.4331448        31638 
   43710    45.694409 2.5973605e+08 2.5974132e+08    5223.1234    153.32327    6.4361448        31638 
   43720    45.792882 2.5973605e+08 2.5974132e+08    5222.5966    153.61849    6.4391448        31638 
   43730    45.885893 2.5973605e+08 2.5974132e+08    5222.0677     153.9209    6.4421448        31638 
   43740    45.972558 2.5973605e+08 2.5974132e+08     5221.539    154.22712    6.4451448        31638 
   43750    46.052061 2.5973605e+08 2.5974132e+08     5221.013    154.53393    6.4481448        31638 
   43760     46.12369 2.5973605e+08 2.5974132e+08     5220.492     154.8384    6.4511448        31638 
   43770    46.186809 2.5973605e+08 2.5974132e+08    5219.9785    155.13773    6.4541448        31638 
   43780    46.240903 2.5973606e+08 2.5974132e+08    5219.4751    155.42928    6.4571448        31638 
   43790    46.285614 2.5973606e+08 2.5974132e+08    5218.9841    155.71044    6.4601448        31638 
   43800    46.320759 2.5973606e+08 2.5974132e+08     5218.508    155.97879    6.4631448        31638 
   43810    46.346297 2.5973606e+08 2.5974132e+08    5218.0491    156.23197    6.4661448        31638 
   43820    46.362359 2.5973606e+08 2.5974132e+08    5217.6098    156.46801    6.4691448        31638 
   43830    46.369226 2.5973606e+08 2.5974132e+08    5217.1924    156.68507    6.4721448        31638 
   43840    46.367299 2.5973606e+08 2.5974132e+08    5216.7989    156.88171    6.4751448        31638 
   43850    46.357086 2.5973606e+08 2.5974132e+08    5216.4314    157.05707    6.4781448        31638 
   43860     46.33921 2.5973606e+08 2.5974132e+08    5216.0916    157.21082    6.4811448        31638 
   43870    46.314359 2.5973606e+08 2.5974132e+08    5215.7812    157.34298    6.4841448        31638 
   43880    46.283234 2.5973606e+08 2.5974132e+08    5215.5014    157.45325    6.4871448        31638 
   43890    46.246477 2.5973606e+08 2.5974132e+08    5215.2533     157.5411    6.4901448        31638 
   43900    46.204677 2.5973606e+08 2.5974132e+08    5215.0377    157.60613    6.4931448        31638 
   43910    46.158331 2.5973606e+08 2.5974132e+08    5214.8548    157.64804    6.4961448        31638 
   43920    46.107771 2.5973606e+08 2.5974132e+08    5214.7049    157.66606    6.4991448        31638 
   43930     46.05313 2.5973606e+08 2.5974132e+08    5214.5876    157.65971    6.5021448        31638 
   43940    45.994388 2.5973606e+08 2.5974132e+08    5214.5024    157.62877    6.5051448        31638 
   43950    45.931444 2.5973606e+08 2.5974132e+08    5214.4485    157.57309    6.5081448        31638 
   43960     45.86411 2.5973606e+08 2.5974132e+08    5214.4249    157.49246    6.5111448        31638 
   43970    45.792104 2.5973606e+08 2.5974132e+08    5214.4301    157.38705    6.5141448        31638 
   43980    45.715032 2.5973606e+08 2.5974132e+08    5214.4627    157.25774    6.5171448        31638 
   43990     45.63246 2.5973606e+08 2.5974132e+08     5214.521    157.10559    6.5201448        31638 
   44000    45.544066 2.5973606e+08 2.5974132e+08    5214.6032    156.90772    6.5231448        31638 
   44010    45.451745 2.5973606e+08 2.5974132e+08    5214.7073    156.72271    6.5261448        31638 
   44020     45.35184 2.5973606e+08 2.5974132e+08    5214.8311    156.51312    6.5291448        31638 
   44030    45.244039 2.5973606e+08 2.5974132e+08    5214.9727    156.28616    6.5321448        31638 
   44040    45.127763 2.5973606e+08 2.5974132e+08    5215.1301    156.04629    6.5351448        31638 
   44050    45.002493 2.5973606e+08 2.5974132e+08     5215.301    155.79609    6.5381448        31638 
   44060    44.867751 2.5973606e+08 2.5974132e+08    5215.4834    155.53864    6.5411448        31638 
   44070    44.723222 2.5973606e+08 2.5974132e+08    5215.6751    155.27785    6.5441448        31638 
   44080    44.568813 2.5973606e+08 2.5974132e+08    5215.8739    155.01747    6.5471448        31638 
   44090    44.404634 2.5973606e+08 2.5974132e+08    5216.0777    154.76098    6.5501448        31638 
   44100    44.230973 2.5973606e+08 2.5974132e+08    5216.2844    154.51168    6.5531448        31638 
   44110    44.048258 2.5973606e+08 2.5974132e+08    5216.4919    154.27311    6.5561448        31638 
   44120    43.856998 2.5973606e+08 2.5974132e+08    5216.6982    154.04844    6.5591448        31638 
   44130    43.657813 2.5973606e+08 2.5974132e+08    5216.9012    153.84011    6.5621448        31638 
   44140    43.451381 2.5973606e+08 2.5974132e+08     5217.099    153.64982    6.5651448        31638 
   44150    43.238374 2.5973606e+08 2.5974132e+08    5217.2897    153.47928    6.5681448        31638 
   44160    43.019403 2.5973606e+08 2.5974132e+08    5217.4714    153.32979    6.5711448        31638 
   44170    42.794957 2.5973606e+08 2.5974132e+08    5217.6423    153.20188    6.5741448        31638 
   44180    42.565301 2.5973606e+08 2.5974132e+08    5217.8009    153.09563    6.5771448        31638 
   44190    42.330483 2.5973606e+08 2.5974132e+08    5217.9454    153.01089    6.5801448        31638 
   44200    42.090445 2.5973606e+08 2.5974132e+08    5218.0746    152.94726    6.5831448        31638 
   44210    41.845156 2.5973606e+08 2.5974132e+08    5218.1872    152.90471    6.5861448        31638 
   44220    41.594555 2.5973606e+08 2.5974132e+08    5218.2824    152.88363    6.5891448        31638 
   44230    41.338621 2.5973606e+08 2.5974132e+08    5218.3596     152.8844    6.5921448        31638 
   44240    41.077548 2.5973606e+08 2.5974132e+08    5218.4187    152.90643    6.5951448        31638 
   44250     40.81163 2.5973606e+08 2.5974132e+08    5218.4597    152.94953    6.5981448        31638 
   44260     40.54117 2.5973606e+08 2.5974132e+08    5218.4834    153.01322    6.6011448        31638 
   44270    40.266392 2.5973606e+08 2.5974132e+08    5218.4906    153.09643    6.6041448        31638 
   44280    39.987301 2.5973606e+08 2.5974132e+08    5218.4827    153.19813    6.6071448        31638 
   44290    39.703675 2.5973606e+08 2.5974132e+08    5218.4611    153.31764    6.6101448        31638 
   44300    39.415104 2.5973606e+08 2.5974132e+08    5218.4278    153.45397    6.6131448        31638 
   44310    39.121033 2.5973606e+08 2.5974132e+08    5218.3847    153.60635    6.6161448        31638 
   44320    38.820779 2.5973606e+08 2.5974132e+08    5218.3339    153.77395    6.6191448        31638 
   44330    38.513474 2.5973606e+08 2.5974132e+08    5218.2776    153.95553    6.6221448        31638 
   44340    38.198271 2.5973606e+08 2.5974132e+08    5218.2182    154.14947    6.6251448        31638 
   44350    37.874608 2.5973606e+08 2.5974132e+08    5218.1578     154.3541    6.6281448        31638 
   44360    37.542183 2.5973607e+08 2.5974132e+08     5218.099    154.56729    6.6311448        31638 
   44370    37.200995 2.5973607e+08 2.5974132e+08    5218.0439    154.78648    6.6341448        31638 
   44380    36.851317 2.5973607e+08 2.5974132e+08    5217.9951    155.00836    6.6371448        31638 
   44390    36.493701 2.5973607e+08 2.5974132e+08    5217.9549    155.22905    6.6401448        31638 
   44400     36.12889 2.5973607e+08 2.5974132e+08    5217.9257    155.44433    6.6431448        31638 
   44410    35.757739 2.5973607e+08 2.5974132e+08      5217.91    155.65033    6.6461448        31638 
   44420    35.381046 2.5973607e+08 2.5974132e+08    5217.9101    155.84319    6.6491448        31638 
   44430    34.999497 2.5973607e+08 2.5974132e+08    5217.9283    156.01962    6.6521448        31638 
   44440    34.613686 2.5973607e+08 2.5974132e+08    5217.9667    156.17691    6.6551448        31638 
   44450     34.22408 2.5973607e+08 2.5974132e+08    5218.0273    156.31314    6.6581448        31638 
   44460    33.831097 2.5973607e+08 2.5974132e+08    5218.1116    156.42658    6.6611448        31638 
   44470    33.435128 2.5973607e+08 2.5974132e+08    5218.2209    156.51591    6.6641448        31638 
   44480    33.036521 2.5973607e+08 2.5974132e+08    5218.3564    156.58042    6.6671448        31638 
   44490    32.635591 2.5973607e+08 2.5974132e+08    5218.5185    156.61963    6.6701448        31638 
   44500    32.232632 2.5973607e+08 2.5974132e+08    5218.7076     156.6338    6.6731448        31638 
   44510    31.827994 2.5973607e+08 2.5974132e+08    5218.9239    156.62331    6.6761448        31638 
   44520    31.422026 2.5973607e+08 2.5974132e+08    5219.1673    156.58818    6.6791448        31638 
   44530    31.015021 2.5973607e+08 2.5974132e+08    5219.4372    156.52876    6.6821448        31638 
   44540    30.607202 2.5973607e+08 2.5974132e+08    5219.7332    156.44541    6.6851448        31638 
   44550    30.198716 2.5973607e+08 2.5974132e+08    5220.0543    156.33851    6.6881448        31638 
   44560    29.789629 2.5973607e+08 2.5974132e+08    5220.3998    156.20886    6.6911448        31638 
   44570    29.379932 2.5973607e+08 2.5974132e+08    5220.7684    156.05748    6.6941448        31638 
   44580    28.969565 2.5973607e+08 2.5974132e+08    5221.1587    155.88541    6.6971448        31638 
   44590    28.558452 2.5973607e+08 2.5974132e+08    5221.5691      155.694    6.7001448        31638 
   44600     28.14647 2.5973607e+08 2.5974132e+08    5221.9978    155.48476    6.7031448        31638 
   44610    27.733383 2.5973607e+08 2.5974132e+08    5222.4427    155.25966    6.7061448        31638 
   44620    27.318856 2.5973607e+08 2.5974132e+08    5222.9012    155.02106    6.7091448        31638 
   44630     26.90252 2.5973607e+08 2.5974132e+08    5223.3708    154.77189    6.7121448        31638 
   44640    26.484039 2.5973607e+08 2.5974132e+08    5223.8485    154.51574    6.7151448        31638 
   44650    26.063134 2.5973607e+08 2.5974132e+08    5224.3314    154.25605    6.7181448        31638 
   44660    25.639606 2.5973607e+08 2.5974132e+08    5224.8163    153.99604    6.7211448        31638 
   44670     25.21334 2.5973607e+08 2.5974132e+08    5225.3001    153.73958    6.7241448        31638 
   44680     24.78431 2.5973607e+08 2.5974132e+08    5225.7797    153.49011    6.7271448        31638 
   44690    24.352595 2.5973607e+08 2.5974132e+08    5226.2522    153.25102    6.7301448        31638 
   44700    23.918384 2.5973607e+08 2.5974132e+08    5226.7149    153.02564    6.7331448        31638 
   44710    23.481994 2.5973607e+08 2.5974132e+08    5227.1651    152.81693    6.7361448        31638 
   44720    23.043876 2.5973607e+08 2.5974132e+08    5227.6006    152.62728    6.7391448        31638 
   44730    22.604587 2.5973607e+08 2.5974132e+08    5228.0193    152.45878    6.7421448        31638 
   44740     22.16476 2.5973607e+08 2.5974132e+08    5228.4195    152.31284    6.7451448        31638 
   44750    21.725064 2.5973607e+08 2.5974132e+08    5228.7995     152.1907    6.7481448        31638 
   44760    21.286217 2.5973607e+08 2.5974132e+08     5229.158    152.09339    6.7511448        31638 
   44770    20.849133 2.5973607e+08 2.5974132e+08    5229.4938    152.02153    6.7541448        31638 
   44780    20.414718 2.5973607e+08 2.5974132e+08    5229.8061    151.97586    6.7571448        31638 
   44790    19.983731 2.5973607e+08 2.5974132e+08    5230.0939    151.95695    6.7601448        31638 
   44800    19.556742 2.5973607e+08 2.5974132e+08    5230.3569    151.96486    6.7631448        31638 
   44810    19.134105 2.5973607e+08 2.5974132e+08    5230.5945    151.99932    6.7661448        31638 
   44820    18.715976 2.5973607e+08 2.5974132e+08    5230.8068    152.05949    6.7691448        31638 
   44830    18.302446 2.5973607e+08 2.5974132e+08    5230.9941    152.14428    6.7721448        31638 
   44840     17.89358 2.5973607e+08 2.5974132e+08    5231.1567     152.2522    6.7751448        31638 
   44850    17.489193 2.5973607e+08 2.5974132e+08    5231.2957    152.38164    6.7781448        31638 
   44860    17.089018 2.5973607e+08 2.5974132e+08    5231.4122     152.5309    6.7811448        31638 
   44870    16.692578 2.5973607e+08 2.5974132e+08    5231.5079    152.69787    6.7841448        31638 
   44880    16.299328 2.5973607e+08 2.5974132e+08    5231.5848    152.87946    6.7871448        31638 
   44890    15.908881 2.5973607e+08 2.5974132e+08    5231.6452    153.07319    6.7901448        31638 
   44900    15.521149 2.5973607e+08 2.5974132e+08    5231.6917    153.27638    6.7931448        31638 
   44910    15.136218 2.5973607e+08 2.5974132e+08    5231.7272    153.48508    6.7961448        31638 
   44920    14.754031 2.5973607e+08 2.5974132e+08    5231.7549    153.69697    6.7991448        31638 
   44930     14.37421 2.5973607e+08 2.5974132e+08    5231.7777     153.9082    6.8021448        31638 
   44940    13.996236 2.5973608e+08 2.5974132e+08    5231.7991    154.11698    6.8051448        31638 
   44950    13.619949 2.5973608e+08 2.5974132e+08    5231.8222     154.3229    6.8081448        31638 
   44960    13.245584 2.5973608e+08 2.5974132e+08    5231.8501    154.52391    6.8111448        31638 
   44970    12.873446 2.5973608e+08 2.5974132e+08    5231.8858     154.7172    6.8141448        31638 
   44980    12.503634 2.5973608e+08 2.5974132e+08    5231.9322    154.90078    6.8171448        31638 
   44990    12.136271 2.5973608e+08 2.5974132e+08    5231.9917    155.07281    6.8201448        31638 
   45000    11.771641 2.5973608e+08 2.5974132e+08    5232.0667    155.21274    6.8231448        31638 
   45010    11.411469 2.5973608e+08 2.5974132e+08    5232.1592    155.36108    6.8261448        31638 
   45020    11.054257 2.5973608e+08 2.5974132e+08     5232.271    155.48406    6.8291448        31638 
   45030    10.700756 2.5973608e+08 2.5974132e+08    5232.4034    155.58351    6.8321448        31638 
   45040    10.351544 2.5973608e+08 2.5974132e+08    5232.5577    155.65762    6.8351448        31638 
   45050    10.007191 2.5973608e+08 2.5974132e+08    5232.7347    155.70414    6.8381448        31638 
   45060    9.6682467 2.5973608e+08 2.5974132e+08    5232.9349    155.72055    6.8411448        31638 
   45070    9.3353676 2.5973608e+08 2.5974132e+08    5233.1585    155.70498    6.8441448        31638 
   45080    9.0092753 2.5973608e+08 2.5974132e+08    5233.4055    155.65607    6.8471448        31638 
   45090    8.6907114 2.5973608e+08 2.5974132e+08    5233.6756    155.57333    6.8501448        31638 
   45100    8.3804269 2.5973608e+08 2.5974132e+08    5233.9682    155.45685    6.8531448        31638 
   45110    8.0790634 2.5973608e+08 2.5974132e+08    5234.2824     155.3077    6.8561448        31638 
   45120    7.7870115 2.5973608e+08 2.5974132e+08    5234.6171     155.1268    6.8591448        31638 
   45130    7.5044601 2.5973608e+08 2.5974132e+08    5234.9709    154.91568    6.8621448        31638 
   45140    7.2315292 2.5973608e+08 2.5974132e+08    5235.3422    154.67687    6.8651448        31638 
   45150    6.9682782 2.5973608e+08 2.5974132e+08    5235.7291    154.41332    6.8681448        31638 
   45160    6.7145807 2.5973608e+08 2.5974132e+08    5236.1293    154.12845    6.8711448        31638 
   45170    6.4700949 2.5973608e+08 2.5974132e+08    5236.5403    153.82596    6.8741448        31638 
   45180    6.2342868 2.5973608e+08 2.5974132e+08    5236.9595    153.51002    6.8771448        31638 
   45190    6.0065141 2.5973608e+08 2.5974132e+08     5237.384     153.1851    6.8801448        31638 
   45200    5.7861595 2.5973608e+08 2.5974132e+08    5237.8108     152.8555    6.8831448        31638 
   45210    5.5727544 2.5973608e+08 2.5974132e+08    5238.2365    152.52588    6.8861448        31638 
   45220    5.3659862 2.5973608e+08 2.5974132e+08    5238.6579    152.20065    6.8891448        31638 
   45230    5.1655221 2.5973608e+08 2.5974132e+08    5239.0715    151.88354    6.8921448        31638 
   45240    4.9709112 2.5973608e+08 2.5974132e+08    5239.4738    151.57764    6.8951448        31638 
   45250    4.7817448 2.5973608e+08 2.5974132e+08    5239.8614    151.28594    6.8981448        31638 
   45260    4.5977785 2.5973608e+08 2.5974132e+08    5240.2306    151.01126    6.9011448        31638 
   45270    4.4189233 2.5973608e+08 2.5974132e+08    5240.5783     150.7562    6.9041448        31638 
   45280    4.2452404 2.5973608e+08 2.5974132e+08    5240.9011    150.52282    6.9071448        31638 
   45290    4.0769006 2.5973608e+08 2.5974132e+08    5241.1959      150.313    6.9101448        31638 
   45300    3.9141662 2.5973608e+08 2.5974132e+08      5241.46    150.12842    6.9131448        31638 
   45310    3.7574255 2.5973608e+08 2.5974132e+08    5241.6907    149.97064    6.9161448        31638 
   45320    3.6071681 2.5973608e+08 2.5974132e+08    5241.8858    149.84091    6.9191448        31638 
   45330    3.4639376 2.5973608e+08 2.5974132e+08    5242.0435    149.74027    6.9221448        31638 
   45340     3.328302 2.5973608e+08 2.5974132e+08    5242.1622    149.66969    6.9251448        31638 
   45350    3.2008413 2.5973608e+08 2.5974132e+08     5242.241    149.63004    6.9281448        31638 
   45360    3.0821086 2.5973608e+08 2.5974132e+08    5242.2791    149.62219    6.9311448        31638 
   45370    2.9725994 2.5973608e+08 2.5974132e+08    5242.2764    149.64682    6.9341448        31638 
   45380    2.8727411 2.5973608e+08 2.5974132e+08    5242.2328    149.70436    6.9371448        31638 
   45390    2.7828732 2.5973608e+08 2.5974132e+08     5242.149    149.79496    6.9401448        31638 
   45400    2.7032256 2.5973608e+08 2.5974132e+08    5242.0258    149.91848    6.9431448        31638 
   45410    2.6339108 2.5973608e+08 2.5974132e+08    5241.8645    150.07424    6.9461448        31638 
   45420    2.5749248 2.5973608e+08 2.5974132e+08    5241.6666    150.26115    6.9491448        31638 
   45430    2.5261515 2.5973608e+08 2.5974132e+08     5241.434    150.47758    6.9521448        31638 
   45440    2.4873623 2.5973608e+08 2.5974132e+08    5241.1689    150.72141    6.9551448        31638 
   45450    2.4582266 2.5973608e+08 2.5974132e+08     5240.874    150.99046    6.9581448        31638 
   45460     2.438329 2.5973608e+08 2.5974132e+08    5240.5521    151.28199    6.9611448        31638 
   45470    2.4271877 2.5973608e+08 2.5974132e+08    5240.2062    151.59283    6.9641448        31638 
   45480    2.4242726 2.5973608e+08 2.5974132e+08    5239.8397    151.91962    6.9671448        31638 
   45490     2.429024 2.5973608e+08 2.5974132e+08     5239.456    152.25852    6.9701448        31638 
   45500    2.4408718 2.5973608e+08 2.5974132e+08    5239.0589    152.60545    6.9731448        31638 
   45510      2.45923 2.5973608e+08 2.5974132e+08    5238.6519    152.95605    6.9761448        31638 
   45520    2.4835723 2.5973608e+08 2.5974132e+08    5238.2387    153.30593    6.9791448        31638 
   45530    2.5135265 2.5973608e+08 2.5974132e+08     5237.823    153.65044    6.9821448        31638 
   45540    2.5488705 2.5973608e+08 2.5974132e+08    5237.4086    153.98543    6.9851448        31638 
   45550    2.5894791 2.5973608e+08 2.5974132e+08    5236.9987    154.30703    6.9881448        31638 
   45560    2.6352944 2.5973608e+08 2.5974132e+08     5236.597    154.61201    6.9911448        31638 
   45570    2.6863335 2.5973608e+08 2.5974132e+08    5236.2066    154.89724    6.9941448        31638 
   45580    2.7426923 2.5973608e+08 2.5974132e+08    5235.8308    155.15973    6.9971448        31638 
   45590    2.8045244 2.5973608e+08 2.5974132e+08    5235.4724    155.39681    7.0001448        31638 
   45600    2.8720381 2.5973608e+08 2.5974132e+08    5235.1342     155.6058    7.0031448        31638 
   45610    2.9455025 2.5973608e+08 2.5974132e+08    5234.8187    155.78434    7.0061448        31638 
   45620    3.0252265 2.5973608e+08 2.5974132e+08    5234.5282     155.9303    7.0091448        31638 
   45630    3.1115404 2.5973608e+08 2.5974132e+08    5234.2644    156.04198    7.0121448        31638 
   45640    3.2047716 2.5973608e+08 2.5974132e+08     5234.029    156.11814    7.0151448        31638 
   45650    3.3052236 2.5973608e+08 2.5974132e+08    5233.8232    156.15778    7.0181448        31638 
   45660    3.4131634 2.5973608e+08 2.5974132e+08    5233.6477    156.16047    7.0211448        31638 
   45670    3.5288051 2.5973608e+08 2.5974132e+08    5233.5028    156.12634    7.0241448        31638 
   45680    3.6522961 2.5973608e+08 2.5974132e+08    5233.3884     156.0558    7.0271448        31638 
   45690     3.783708 2.5973608e+08 2.5974132e+08    5233.3041    155.94963    7.0301448        31638 
   45700    3.9230295 2.5973608e+08 2.5974132e+08    5233.2489    155.80866    7.0331448        31638 
   45710    4.0701656 2.5973608e+08 2.5974132e+08    5233.2215    155.63407    7.0361448        31638 
   45720    4.2249331 2.5973608e+08 2.5974132e+08      5233.22    155.42728    7.0391448        31638 
   45730    4.3870656 2.5973608e+08 2.5974132e+08    5233.2425    155.18996    7.0421448        31638 
   45740     4.556217 2.5973608e+08 2.5974132e+08    5233.2865    154.92435    7.0451448        31638 
   45750    4.7319748 2.5973608e+08 2.5974132e+08    5233.3494    154.63317    7.0481448        31638 
   45760    4.9138733 2.5973608e+08 2.5974132e+08     5233.428    154.31944    7.0511448        31638 
   45770      5.10141 2.5973608e+08 2.5974132e+08    5233.5194    153.98656    7.0541448        31638 
   45780    5.2940668 2.5973608e+08 2.5974132e+08      5233.62    153.63814    7.0571448        31638 
   45790    5.4913276 2.5973608e+08 2.5974132e+08    5233.7263    153.27804    7.0601448        31638 
   45800    5.6926916 2.5973608e+08 2.5974132e+08    5233.8347    152.91036    7.0631448        31638 
   45810    5.8976846 2.5973608e+08 2.5974132e+08    5233.9415    152.53937    7.0661448        31638 
   45820    6.1058703 2.5973608e+08 2.5974132e+08     5234.043     152.1695    7.0691448        31638 
   45830    6.3168674 2.5973608e+08 2.5974132e+08    5234.1355    151.80529    7.0721448        31638 
   45840    6.5303538 2.5973608e+08 2.5974132e+08    5234.2154    151.45131    7.0751448        31638 
   45850    6.7460775 2.5973608e+08 2.5974132e+08    5234.2791    151.11202    7.0781448        31638 
   45860     6.963865 2.5973608e+08 2.5974132e+08    5234.3233    150.79154    7.0811448        31638 
   45870    7.1836215 2.5973608e+08 2.5974132e+08    5234.3445    150.49354    7.0841448        31638 
   45880    7.4053212 2.5973608e+08 2.5974132e+08    5234.3398    150.22118    7.0871448        31638 
   45890    7.6290015 2.5973608e+08 2.5974132e+08     5234.306    149.97706    7.0901448        31638 
   45900    7.8547616 2.5973608e+08 2.5974132e+08    5234.2406    149.76349    7.0931448        31638 
   45910    8.0827463 2.5973608e+08 2.5974132e+08    5234.1408    149.58235    7.0961448        31638 
   45920    8.3131314 2.5973608e+08 2.5974132e+08    5234.0046    149.43509    7.0991448        31638 
   45930    8.5461076 2.5973608e+08 2.5974132e+08      5233.83    149.32292    7.1021448        31638 
   45940    8.7818494 2.5973608e+08 2.5974132e+08    5233.6154    149.24678    7.1051448        31638 
   45950    9.0204912 2.5973608e+08 2.5974132e+08    5233.3598    149.20731    7.1081448        31638 
   45960    9.2621204 2.5973608e+08 2.5974132e+08    5233.0623    149.20499    7.1111448        31638 
   45970    9.5067621 2.5973608e+08 2.5974132e+08    5232.7226    149.24008    7.1141448        31638 
   45980    9.7543915 2.5973608e+08 2.5974132e+08    5232.3409    149.31241    7.1171448        31638 
   45990    10.004913 2.5973608e+08 2.5974132e+08    5231.9178    149.42162    7.1201448        31638 
   46000    10.258244 2.5973608e+08 2.5974132e+08    5231.4542    149.54927    7.1231448        31638 
   46010    10.515318 2.5973608e+08 2.5974132e+08    5230.9515    149.73514    7.1261448        31638 
   46020    10.774483 2.5973608e+08 2.5974132e+08    5230.4115    149.95121    7.1291448        31638 
   46030     11.03558 2.5973608e+08 2.5974132e+08    5229.8363    150.19973    7.1321448        31638 
   46040    11.298295 2.5973608e+08 2.5974132e+08    5229.2288    150.47923    7.1351448        31638 
   46050    11.562292 2.5973608e+08 2.5974132e+08    5228.5916    150.78735    7.1381448        31638 
   46060    11.827193 2.5973608e+08 2.5974132e+08    5227.9281    151.12146    7.1411448        31638 
   46070    12.092595 2.5973608e+08 2.5974132e+08    5227.2415     151.4786    7.1441448        31638 
   46080    12.358104 2.5973608e+08 2.5974132e+08    5226.5355     151.8554    7.1471448        31638 
   46090    12.623337 2.5973608e+08 2.5974132e+08    5225.8137    152.24841    7.1501448        31638 
   46100    12.887902 2.5973608e+08 2.5974132e+08    5225.0801    152.65407    7.1531448        31638 
   46110    13.151379 2.5973608e+08 2.5974132e+08    5224.3387    153.06872    7.1561448        31638 
   46120    13.413344 2.5973608e+08 2.5974132e+08    5223.5934    153.48874    7.1591448        31638 
   46130    13.673371 2.5973608e+08 2.5974132e+08    5222.8482    153.91032    7.1621448        31638 
   46140      13.9311 2.5973608e+08 2.5974132e+08    5222.1072    154.32981    7.1651448        31638 
   46150    14.186249 2.5973609e+08 2.5974132e+08    5221.3744    154.74329    7.1681448        31638 
   46160    14.438628 2.5973609e+08 2.5974132e+08    5220.6536    155.14675    7.1711448        31638 
   46170    14.688155 2.5973609e+08 2.5974132e+08    5219.9486     155.5361    7.1741448        31638 
   46180    14.934866 2.5973609e+08 2.5974132e+08     5219.263    155.90725    7.1771448        31638 
   46190    15.178934 2.5973609e+08 2.5974132e+08    5218.6002    156.25604    7.1801448        31638 
   46200    15.420645 2.5973609e+08 2.5974132e+08    5217.9635     156.5787    7.1831448        31638 
   46210    15.660371 2.5973609e+08 2.5974132e+08     5217.356    156.87204    7.1861448        31638 
   46220    15.898531 2.5973609e+08 2.5974132e+08    5216.7803    157.13336    7.1891448        31638 
   46230    16.135565 2.5973609e+08 2.5974132e+08     5216.239    157.36051    7.1921448        31638 
   46240    16.371881 2.5973609e+08 2.5974132e+08     5215.734    157.55152    7.1951448        31638 
   46250    16.607815 2.5973609e+08 2.5974132e+08    5215.2673    157.70459    7.1981448        31638 
   46260    16.843623 2.5973609e+08 2.5974132e+08    5214.8402    157.81831    7.2011448        31638 
   46270    17.079426 2.5973609e+08 2.5974132e+08    5214.4537    157.89159    7.2041448        31638 
   46280    17.315185 2.5973609e+08 2.5974132e+08    5214.1086    157.92422    7.2071448        31638 
   46290    17.550759 2.5973609e+08 2.5974132e+08    5213.8051    157.91609    7.2101448        31638 
   46300    17.785918 2.5973609e+08 2.5974132e+08    5213.5432    157.86749    7.2131448        31638 
   46310    18.020393 2.5973609e+08 2.5974132e+08    5213.3225    157.77902    7.2161448        31638 
   46320     18.25389 2.5973609e+08 2.5974132e+08    5213.1422    157.65174    7.2191448        31638 
   46330     18.48607 2.5973609e+08 2.5974132e+08    5213.0012    157.48728    7.2221448        31638 
   46340    18.716592 2.5973609e+08 2.5974132e+08    5212.8979    157.28755    7.2251448        31638 
   46350    18.945076 2.5973609e+08 2.5974132e+08    5212.8307     157.0548    7.2281448        31638 
   46360    19.171114 2.5973609e+08 2.5974132e+08    5212.7972    156.79157    7.2311448        31638 
   46370    19.394268 2.5973609e+08 2.5974132e+08    5212.7952    156.50065    7.2341448        31638 
   46380    19.614055 2.5973609e+08 2.5974132e+08    5212.8218    156.18507    7.2371448        31638 
   46390    19.829994 2.5973609e+08 2.5974132e+08     5212.874    155.84814    7.2401448        31638 
   46400    20.041626 2.5973609e+08 2.5974132e+08    5212.9487    155.49364    7.2431448        31638 
   46410    20.248566 2.5973609e+08 2.5974132e+08    5213.0425    155.12525    7.2461448        31638 
   46420     20.45047 2.5973609e+08 2.5974132e+08    5213.1519    154.74676    7.2491448        31638 
   46430    20.647037 2.5973609e+08 2.5974132e+08    5213.2731    154.36171    7.2521448        31638 
   46440    20.838012 2.5973609e+08 2.5974132e+08    5213.4025    153.97348    7.2551448        31638 
   46450    21.023232 2.5973609e+08 2.5974132e+08    5213.5362    153.58529    7.2581448        31638 
   46460    21.202637 2.5973609e+08 2.5974132e+08    5213.6706     153.2002    7.2611448        31638 
   46470    21.376252 2.5973609e+08 2.5974132e+08    5213.8019    152.82125    7.2641448        31638 
   46480     21.54418 2.5973609e+08 2.5974132e+08    5213.9264     152.4515    7.2671448        31638 
   46490    21.706609 2.5973609e+08 2.5974132e+08    5214.0406      152.094    7.2701448        31638 
   46500    21.863806 2.5973608e+08 2.5974132e+08     5214.141    151.75189    7.2731448        31638 
   46510    22.016126 2.5973608e+08 2.5974132e+08    5214.2245    151.42823    7.2761448        31638 
   46520    22.164033 2.5973608e+08 2.5974132e+08    5214.2881      151.126    7.2791448        31638 
   46530    22.307993 2.5973608e+08 2.5974132e+08    5214.3289    150.84826    7.2821448        31638 
   46540    22.448427 2.5973608e+08 2.5974132e+08    5214.3445    150.59783    7.2851448        31638 
   46550     22.58572 2.5973608e+08 2.5974132e+08    5214.3326    150.37744    7.2881448        31638 
   46560      22.7202 2.5973608e+08 2.5974132e+08    5214.2914    150.18962    7.2911448        31638 
   46570    22.852124 2.5973608e+08 2.5974132e+08    5214.2192    150.03623    7.2941448        31638 
   46580    22.981646 2.5973608e+08 2.5974132e+08    5214.1147     149.9187    7.2971448        31638 
   46590    23.108801 2.5973608e+08 2.5974132e+08    5213.9771    149.83834    7.3001448        31638 
   46600    23.233524 2.5973608e+08 2.5974132e+08    5213.8058    149.79592    7.3031448        31638 
   46610    23.355662 2.5973608e+08 2.5974132e+08    5213.6006    149.79184    7.3061448        31638 
   46620    23.474956 2.5973608e+08 2.5974132e+08    5213.3615    149.82617    7.3091448        31638 
   46630    23.591109 2.5973608e+08 2.5974132e+08    5213.0889    149.89854    7.3121448        31638 
   46640    23.703774 2.5973608e+08 2.5974132e+08    5212.7836    150.00812    7.3151448        31638 
   46650    23.812555 2.5973608e+08 2.5974132e+08    5212.4465    150.15367    7.3181448        31638 
   46660     23.91703 2.5973608e+08 2.5974132e+08    5212.0791    150.33371    7.3211448        31638 
   46670    24.016792 2.5973609e+08 2.5974132e+08    5211.6828    150.54633    7.3241448        31638 
   46680    24.111433 2.5973609e+08 2.5974132e+08    5211.2597     150.7894    7.3271448        31638 
   46690    24.200532 2.5973609e+08 2.5974132e+08    5210.8118    151.06053    7.3301448        31638 
   46700    24.283723 2.5973609e+08 2.5974132e+08    5210.3415    151.35706    7.3331448        31638 
   46710    24.360735 2.5973609e+08 2.5974132e+08    5209.8516    151.67627    7.3361448        31638 
   46720    24.431418 2.5973609e+08 2.5974132e+08    5209.3449    152.01519    7.3391448        31638 
   46730    24.495748 2.5973609e+08 2.5974132e+08    5208.8247    152.37064    7.3421448        31638 
   46740    24.553782 2.5973609e+08 2.5974132e+08    5208.2942    152.73926    7.3451448        31638 
   46750    24.605665 2.5973609e+08 2.5974132e+08    5207.7569    153.11775    7.3481448        31638 
   46760    24.651623 2.5973609e+08 2.5974132e+08    5207.2165    153.50272    7.3511448        31638 
   46770    24.691959 2.5973609e+08 2.5974132e+08    5206.6765    153.89078    7.3541448        31638 
   46780    24.727027 2.5973609e+08 2.5974132e+08    5206.1408    154.27824    7.3571448        31638 
   46790    24.757226 2.5973609e+08 2.5974132e+08    5205.6131    154.66141    7.3601448        31638 
   46800    24.782984 2.5973609e+08 2.5974132e+08     5205.097     155.0367    7.3631448        31638 
   46810    24.804711 2.5973609e+08 2.5974132e+08    5204.5961    155.40044    7.3661448        31638 
   46820    24.822796 2.5973609e+08 2.5974132e+08    5204.1139    155.74941    7.3691448        31638 
   46830     24.83762 2.5973609e+08 2.5974132e+08    5203.6538    156.08057    7.3721448        31638 
   46840    24.849515 2.5973609e+08 2.5974132e+08    5203.2189    156.39084    7.3751448        31638 
   46850    24.858763 2.5973609e+08 2.5974132e+08    5202.8122    156.67726    7.3781448        31638 
   46860    24.865623 2.5973609e+08 2.5974132e+08    5202.4366    156.93725    7.3811448        31638 
   46870     24.87031 2.5973609e+08 2.5974132e+08    5202.0946    157.16821    7.3841448        31638 
   46880    24.872954 2.5973609e+08 2.5974132e+08    5201.7885     157.3675    7.3871448        31638 
   46890    24.873585 2.5973609e+08 2.5974132e+08    5201.5202    157.53311    7.3901448        31638 
   46900    24.872159 2.5973609e+08 2.5974132e+08    5201.2915    157.66333    7.3931448        31638 
   46910    24.868571 2.5973609e+08 2.5974132e+08    5201.1036    157.75678    7.3961448        31638 
   46920    24.862707 2.597361e+08 2.5974132e+08    5200.9575    157.81251    7.3991448        31638 
   46930     24.85442 2.597361e+08 2.5974132e+08    5200.8538    157.82971    7.4021448        31638 
   46940    24.843564 2.597361e+08 2.5974132e+08    5200.7928    157.80794    7.4051448        31638 
   46950    24.829971 2.597361e+08 2.5974132e+08    5200.7741    157.74723    7.4081448        31638 
   46960    24.813453 2.597361e+08 2.5974132e+08    5200.7974    157.64797    7.4111448        31638 
   46970    24.793805 2.597361e+08 2.5974132e+08    5200.8617    157.51133    7.4141448        31638 
   46980    24.770859 2.597361e+08 2.5974132e+08    5200.9658    157.33865    7.4171448        31638 
   46990    24.744484 2.597361e+08 2.5974132e+08    5201.1083    157.13118    7.4201448        31638 
   47000    24.714141 2.5973609e+08 2.5974132e+08    5201.2872    156.96467    7.4231448        31638 
   47010    24.674043 2.5973609e+08 2.5974132e+08     5201.501    156.66766    7.4261448        31638 
   47020    24.631508 2.5973609e+08 2.5974132e+08    5201.7475    156.36332    7.4291448        31638 
   47030    24.585705 2.5973609e+08 2.5974132e+08    5202.0239    156.03769    7.4321448        31638 
   47040    24.536507 2.5973609e+08 2.5974132e+08    5202.3272    155.69028    7.4351448        31638 
   47050    24.483816 2.5973609e+08 2.5974132e+08     5202.654    155.32468    7.4381448        31638 
   47060    24.427633 2.5973609e+08 2.5974132e+08    5203.0011    154.94418    7.4411448        31638 
   47070    24.368039 2.5973609e+08 2.5974132e+08     5203.365    154.55193    7.4441448        31638 
   47080    24.305132 2.5973609e+08 2.5974132e+08    5203.7418    154.15103    7.4471448        31638 
   47090     24.23905 2.5973609e+08 2.5974132e+08     5204.128    153.74468    7.4501448        31638 
   47100    24.169956 2.5973609e+08 2.5974132e+08    5204.5195    153.33607    7.4531448        31638 
   47110    24.097999 2.5973609e+08 2.5974132e+08    5204.9127    152.92832    7.4561448        31638 
   47120     24.02331 2.5973609e+08 2.5974132e+08    5205.3037    152.52459    7.4591448        31638 
   47130    23.945992 2.5973609e+08 2.5974132e+08    5205.6888    152.12809    7.4621448        31638 
   47140    23.866151 2.5973609e+08 2.5974132e+08    5206.0645    151.74208    7.4651448        31638 
   47150    23.783935 2.5973609e+08 2.5974132e+08    5206.4273    151.36979    7.4681448        31638 
   47160    23.699488 2.5973609e+08 2.5974132e+08     5206.774    151.01445    7.4711448        31638 
   47170    23.612933 2.5973609e+08 2.5974132e+08    5207.1014    150.67924    7.4741448        31638 
   47180     23.52438 2.5973609e+08 2.5974132e+08    5207.4066     150.3677    7.4771448        31638 
   47190    23.433928 2.5973609e+08 2.5974132e+08    5207.6866    150.08325    7.4801448        31638 
   47200    23.341655 2.5973609e+08 2.5974132e+08    5207.9389    149.82918    7.4831448        31638 
   47210    23.247643 2.5973609e+08 2.5974132e+08    5208.1612    149.60835    7.4861448        31638 
   47220    23.151965 2.5973609e+08 2.5974132e+08    5208.3514    149.42246    7.4891448        31638 
   47230    23.054651 2.5973609e+08 2.5974132e+08    5208.5077    149.27279    7.4921448        31638 
   47240    22.955693 2.5973609e+08 2.5974132e+08    5208.6288    149.16041    7.4951448        31638 
   47250     22.85506 2.5973609e+08 2.5974132e+08    5208.7136    149.08595    7.4981448        31638 
   47260    22.752763 2.5973609e+08 2.5974132e+08    5208.7612    149.05003    7.5011448        31638 
   47270    22.648816 2.5973609e+08 2.5974132e+08    5208.7714    149.05294    7.5041448        31638 
   47280    22.543212 2.5973609e+08 2.5974132e+08    5208.7441    149.09438    7.5071448        31638 
   47290    22.435941 2.5973609e+08 2.5974132e+08    5208.6796    149.17384    7.5101448        31638 
   47300    22.326996 2.5973609e+08 2.5974132e+08    5208.5787    149.29066    7.5131448        31638 
   47310    22.216353 2.5973609e+08 2.5974132e+08    5208.4423    149.44378    7.5161448        31638 
   47320    22.103969 2.5973609e+08 2.5974132e+08     5208.272    149.63164    7.5191448        31638 
   47330    21.989805 2.5973609e+08 2.5974132e+08    5208.0693    149.85244    7.5221448        31638 
   47340    21.873821 2.5973609e+08 2.5974132e+08    5207.8363    150.10417    7.5251448        31638 
   47350    21.755964 2.5973609e+08 2.5974132e+08    5207.5754    150.38439    7.5281448        31638 
   47360    21.636212 2.5973609e+08 2.5974132e+08    5207.2893    150.69043    7.5311448        31638 
   47370    21.514567 2.5973609e+08 2.5974132e+08     5206.981    151.01932    7.5341448        31638 
   47380    21.391088 2.5973609e+08 2.5974132e+08    5206.6539    151.36783    7.5371448        31638 
   47390    21.265855 2.5973609e+08 2.5974132e+08    5206.3114    151.73277    7.5401448        31638 
   47400    21.138955 2.5973609e+08 2.5974132e+08    5205.9575    152.11065    7.5431448        31638 
   47410    21.010482 2.5973609e+08 2.5974132e+08    5205.5958    152.49775    7.5461448        31638 
   47420    20.880539 2.5973609e+08 2.5974132e+08    5205.2305    152.89031    7.5491448        31638 
   47430    20.749242 2.597361e+08 2.5974132e+08    5204.8655    153.28464    7.5521448        31638 
   47440    20.616715 2.597361e+08 2.5974132e+08    5204.5047    153.67717    7.5551448        31638 
   47450    20.483079 2.597361e+08 2.5974132e+08    5204.1519    154.06437    7.5581448        31638 
   47460    20.348453 2.597361e+08 2.5974132e+08     5203.811    154.44272    7.5611448        31638 
   47470    20.212959 2.597361e+08 2.5974132e+08    5203.4856    154.80882    7.5641448        31638 
   47480    20.076724 2.597361e+08 2.5974132e+08    5203.1792    155.15933    7.5671448        31638 
   47490     19.93988 2.597361e+08 2.5974132e+08    5202.8951     155.4908    7.5701448        31638 
   47500    19.802563 2.597361e+08 2.5974132e+08    5202.6366    155.79988    7.5731448        31638 
   47510    19.664918 2.597361e+08 2.5974132e+08    5202.4063    156.08317    7.5761448        31638 
   47520    19.527099 2.597361e+08 2.5974132e+08    5202.2072    156.33706    7.5791448        31638 
   47530    19.389259 2.597361e+08 2.5974132e+08    5202.0414    156.55819    7.5821448        31638 
   47540    19.251539 2.597361e+08 2.5974132e+08    5201.9113    156.74341    7.5851448        31638 
   47550    19.114058 2.597361e+08 2.5974132e+08    5201.8184       156.89    7.5881448        31638 
   47560     18.97692 2.597361e+08 2.5974132e+08    5201.7643    156.99589    7.5911448        31638 
   47570    18.840214 2.597361e+08 2.5974132e+08    5201.7501    157.06001    7.5941448        31638 
   47580    18.704005 2.597361e+08 2.5974132e+08    5201.7764    157.08187    7.5971448        31638 
   47590    18.568339 2.597361e+08 2.5974132e+08    5201.8437    157.06166    7.6001448        31638 
   47600    18.433258 2.597361e+08 2.5974132e+08    5201.9519    156.99986    7.6031448        31638 
   47610    18.298786 2.597361e+08 2.5974132e+08    5202.1006    156.89733    7.6061448        31638 
   47620    18.164942 2.597361e+08 2.5974132e+08    5202.2891    156.75522    7.6091448        31638 
   47630    18.031739 2.597361e+08 2.5974132e+08    5202.5162    156.57513    7.6121448        31638 
   47640    17.899172 2.597361e+08 2.5974132e+08    5202.7806    156.35887    7.6151448        31638 
   47650    17.767218 2.597361e+08 2.5974132e+08    5203.0803    156.10832    7.6181448        31638 
   47660    17.635845 2.597361e+08 2.5974132e+08    5203.4131    155.82572    7.6211448        31638 
   47670    17.505004 2.597361e+08 2.5974132e+08    5203.7767    155.51354    7.6241448        31638 
   47680    17.374644 2.597361e+08 2.5974132e+08    5204.1682    155.17445    7.6271448        31638 
   47690    17.244706 2.597361e+08 2.5974132e+08    5204.5844    154.81153    7.6301448        31638 
   47700    17.115118 2.597361e+08 2.5974132e+08    5205.0222    154.42792    7.6331448        31638 
   47710    16.985805 2.597361e+08 2.5974132e+08    5205.4778     154.0269    7.6361448        31638 
   47720    16.856695 2.597361e+08 2.5974132e+08    5205.9475     153.6122    7.6391448        31638 
   47730     16.72773 2.597361e+08 2.5974132e+08    5206.4274    153.18758    7.6421448        31638 
   47740    16.598875 2.597361e+08 2.5974132e+08    5206.9134    152.75668    7.6451448        31638 
   47750    16.470096 2.597361e+08 2.5974132e+08    5207.4013    152.32323    7.6481448        31638 
   47760    16.341349 2.597361e+08 2.5974132e+08     5207.887     151.8911    7.6511448        31638 
   47770    16.212608 2.597361e+08 2.5974132e+08    5208.3665    151.46405    7.6541448        31638 
   47780    16.083874 2.597361e+08 2.5974132e+08    5208.8357    151.04589    7.6571448        31638 
   47790    15.955171 2.597361e+08 2.5974132e+08    5209.2907    150.64046    7.6601448        31638 
   47800    15.826554 2.597361e+08 2.5974132e+08    5209.7279    150.25136    7.6631448        31638 
   47810      15.6981 2.597361e+08 2.5974132e+08    5210.1436    149.88202    7.6661448        31638 
   47820    15.569917 2.5973609e+08 2.5974132e+08    5210.5345    149.53575    7.6691448        31638 
   47830    15.442128 2.5973609e+08 2.5974132e+08    5210.8976    149.21571    7.6721448        31638 
   47840    15.314884 2.5973609e+08 2.5974132e+08    5211.2299    148.92501    7.6751448        31638 
   47850    15.188349 2.5973609e+08 2.5974132e+08    5211.5289    148.66629    7.6781448        31638 
   47860    15.062693 2.5973609e+08 2.5974132e+08    5211.7922     148.4421    7.6811448        31638 
   47870    14.938079 2.5973609e+08 2.5974132e+08    5212.0179    148.25485    7.6841448        31638 
   47880    14.814667 2.5973609e+08 2.5974132e+08    5212.2043    148.10658    7.6871448        31638 
   47890    14.692615 2.5973609e+08 2.5974132e+08    5212.3502    147.99881    7.6901448        31638 
   47900    14.572067 2.5973609e+08 2.5974132e+08    5212.4546    147.93277    7.6931448        31638 
   47910    14.453151 2.5973609e+08 2.5974132e+08    5212.5172    147.90937    7.6961448        31638 
   47920    14.335969 2.5973609e+08 2.5974132e+08    5212.5376    147.92898    7.6991448        31638 
   47930    14.220594 2.5973609e+08 2.5974132e+08    5212.5162    147.99147    7.7021448        31638 
   47940    14.107079 2.5973609e+08 2.5974132e+08    5212.4536    148.09604    7.7051448        31638 
   47950    13.995442 2.5973609e+08 2.5974132e+08    5212.3508    148.24148    7.7081448        31638 
   47960    13.885672 2.5973609e+08 2.5974132e+08    5212.2092    148.42602    7.7111448        31638 
   47970    13.777724 2.597361e+08 2.5974132e+08    5212.0305    148.64744    7.7141448        31638 
   47980    13.671512 2.597361e+08 2.5974132e+08    5211.8169    148.90326    7.7171448        31638 
   47990    13.566919 2.597361e+08 2.5974132e+08    5211.5707     149.1908    7.7201448        31638 
   48000     13.46395 2.597361e+08 2.5974132e+08    5211.2947    149.47562    7.7231448        31638 
   48010     13.36425 2.597361e+08 2.5974132e+08    5210.9918    149.82877    7.7261448        31638 
   48020    13.265284 2.597361e+08 2.5974132e+08    5210.6651    150.19535    7.7291448        31638 
   48030    13.167147 2.597361e+08 2.5974132e+08    5210.3183    150.57822    7.7321448        31638 
   48040    13.069705 2.597361e+08 2.5974132e+08    5209.9552    150.97574    7.7351448        31638 
   48050     12.97285 2.597361e+08 2.5974132e+08    5209.5796    151.38421    7.7381448        31638 
   48060    12.876469 2.597361e+08 2.5974132e+08    5209.1955     151.7999    7.7411448        31638 
   48070    12.780462 2.597361e+08 2.5974132e+08    5208.8071    152.21904    7.7441448        31638 
   48080    12.684769 2.597361e+08 2.5974132e+08    5208.4185    152.63757    7.7471448        31638 
   48090    12.589368 2.597361e+08 2.5974132e+08    5208.0337     153.0515    7.7501448        31638 
   48100    12.494269 2.597361e+08 2.5974132e+08    5207.6569    153.45692    7.7531448        31638 
   48110    12.399524 2.597361e+08 2.5974132e+08     5207.292    153.85009    7.7561448        31638 
   48120    12.305226 2.597361e+08 2.5974132e+08    5206.9429    154.22707    7.7591448        31638 
   48130    12.211507 2.597361e+08 2.5974132e+08    5206.6132    154.58411    7.7621448        31638 
   48140    12.118546 2.597361e+08 2.5974132e+08    5206.3064    154.91768    7.7651448        31638 
   48150    12.026555 2.597361e+08 2.5974132e+08    5206.0259    155.22435    7.7681448        31638 
   48160    11.935772 2.597361e+08 2.5974132e+08    5205.7745    155.50081    7.7711448        31638 
   48170    11.846457 2.597361e+08 2.5974132e+08    5205.5549     155.7442    7.7741448        31638 
   48180    11.758876 2.597361e+08 2.5974132e+08    5205.3696    155.95191    7.7771448        31638 
   48190    11.673284 2.597361e+08 2.5974132e+08    5205.2206    156.12157    7.7801448        31638 
   48200     11.58993 2.597361e+08 2.5974132e+08    5205.1097    156.25122    7.7831448        31638 
   48210    11.509035 2.597361e+08 2.5974132e+08     5205.038    156.33934    7.7861448        31638 
   48220    11.430779 2.597361e+08 2.5974132e+08    5205.0066    156.38498    7.7891448        31638 
   48230    11.355296 2.597361e+08 2.5974132e+08     5205.016    156.38778    7.7921448        31638 
   48240    11.282667 2.597361e+08 2.5974132e+08    5205.0662    156.34787    7.7951448        31638 
   48250    11.212924 2.597361e+08 2.5974132e+08    5205.1571     156.2656    7.7981448        31638 
   48260    11.146068 2.597361e+08 2.5974132e+08    5205.2879    156.14169    7.8011448        31638 
   48270    11.082056 2.597361e+08 2.5974132e+08    5205.4577    155.97727    7.8041448        31638 
   48280    11.020793 2.597361e+08 2.5974132e+08    5205.6649    155.77382    7.8071448        31638 
   48290    10.962127 2.597361e+08 2.5974132e+08    5205.9077     155.5332    7.8101448        31638 
   48300    10.905848 2.597361e+08 2.5974132e+08    5206.1839    155.25764    7.8131448        31638 
   48310    10.851716 2.597361e+08 2.5974132e+08    5206.4911    154.94957    7.8161448        31638 
   48320    10.799477 2.597361e+08 2.5974132e+08    5206.8263    154.61169    7.8191448        31638 
   48330    10.748871 2.597361e+08 2.5974132e+08    5207.1864    154.24708    7.8221448        31638 
   48340     10.69964 2.597361e+08 2.5974132e+08    5207.5681    153.85909    7.8251448        31638 
   48350    10.651533 2.597361e+08 2.5974132e+08    5207.9676    153.45141    7.8281448        31638 
   48360     10.60433 2.597361e+08 2.5974132e+08    5208.3811    153.02796    7.8311448        31638 
   48370    10.557841 2.597361e+08 2.5974132e+08    5208.8047    152.59292    7.8341448        31638 
   48380    10.511904 2.597361e+08 2.5974132e+08    5209.2342    152.15052    7.8371448        31638 
   48390    10.466408 2.597361e+08 2.5974132e+08    5209.6656    151.70501    7.8401448        31638 
   48400    10.421297 2.597361e+08 2.5974132e+08    5210.0946     151.2606    7.8431448        31638 
   48410    10.376579 2.597361e+08 2.5974132e+08    5210.5171    150.82144    7.8461448        31638 
   48420    10.332302 2.597361e+08 2.5974132e+08    5210.9289    150.39181    7.8491448        31638 
   48430    10.288552 2.597361e+08 2.5974132e+08    5211.3262     149.9757    7.8521448        31638 
   48440    10.245455 2.597361e+08 2.5974132e+08    5211.7049    149.57692    7.8551448        31638 
   48450    10.203175 2.597361e+08 2.5974132e+08    5212.0614    149.19911    7.8581448        31638 
   48460    10.161908 2.597361e+08 2.5974132e+08    5212.3921    148.84579    7.8611448        31638 
   48470    10.121874 2.597361e+08 2.5974132e+08    5212.6937    148.52019    7.8641448        31638 
   48480    10.083291 2.597361e+08 2.5974132e+08    5212.9632    148.22528    7.8671448        31638 
   48490    10.046381 2.597361e+08 2.5974132e+08    5213.1978    147.96376    7.8701448        31638 
   48500    10.011359 2.597361e+08 2.5974132e+08    5213.3951    147.73817    7.8731448        31638 
   48510    9.9784245 2.597361e+08 2.5974132e+08    5213.5529    147.55066    7.8761448        31638 
   48520    9.9477597 2.597361e+08 2.5974132e+08    5213.6697    147.40301    7.8791448        31638 
   48530    9.9195012 2.597361e+08 2.5974132e+08     5213.744     147.2965    7.8821448        31638 
   48540    9.8937398 2.597361e+08 2.5974132e+08    5213.7751    147.23213    7.8851448        31638 
   48550    9.8705078 2.597361e+08 2.5974132e+08    5213.7623    147.21071    7.8881448        31638 
   48560    9.8497939 2.597361e+08 2.5974132e+08    5213.7056    147.23263    7.8911448        31638 
   48570    9.8315436 2.597361e+08 2.5974132e+08    5213.6054    147.29773    7.8941448        31638 
   48580    9.8156562 2.597361e+08 2.5974132e+08    5213.4625    147.40539    7.8971448        31638 
   48590    9.8019875 2.597361e+08 2.5974132e+08    5213.2779    147.55468    7.9001448        31638 
   48600    9.7903469 2.597361e+08 2.5974132e+08    5213.0533    147.74404    7.9031448        31638 
   48610    9.7805193 2.597361e+08 2.5974132e+08    5212.7904    147.97163    7.9061448        31638 
   48620    9.7722643 2.597361e+08 2.5974132e+08    5212.4916    148.23513    7.9091448        31638 
   48630    9.7653217 2.597361e+08 2.5974132e+08    5212.1593    148.53177    7.9121448        31638 
   48640    9.7594277 2.597361e+08 2.5974132e+08    5211.7965    148.85863    7.9151448        31638 
   48650    9.7543224 2.597361e+08 2.5974132e+08    5211.4062     149.2124    7.9181448        31638 
   48660    9.7497484 2.597361e+08 2.5974132e+08    5210.9919    149.58945    7.9211448        31638 
   48670    9.7454589 2.597361e+08 2.5974132e+08    5210.5571    149.98585    7.9241448        31638 
   48680    9.7412267 2.597361e+08 2.5974132e+08    5210.1055    150.39731    7.9271448        31638 
   48690    9.7368612 2.597361e+08 2.5974132e+08    5209.6411    150.81957    7.9301448        31638 
   48700    9.7322252 2.597361e+08 2.5974132e+08     5209.168    151.24834    7.9331448        31638 
   48710    9.7272398 2.597361e+08 2.5974132e+08    5208.6902    151.67934    7.9361448        31638 
   48720    9.7218732 2.597361e+08 2.5974132e+08    5208.2119    152.10832    7.9391448        31638 
   48730    9.7161353 2.597361e+08 2.5974132e+08    5207.7372    152.53124    7.9421448        31638 
   48740    9.7100807 2.597361e+08 2.5974132e+08    5207.2702    152.94422    7.9451448        31638 
   48750    9.7038081 2.597361e+08 2.5974132e+08    5206.8149    153.34343    7.9481448        31638 
   48760    9.6974516 2.597361e+08 2.5974132e+08    5206.3752    153.72527    7.9511448        31638 
   48770    9.6911802 2.5973611e+08 2.5974132e+08     5205.955    154.08641    7.9541448        31638 
   48780     9.685189 2.5973611e+08 2.5974132e+08    5205.5577    154.42367    7.9571448        31638 
   48790    9.6796907 2.5973611e+08 2.5974132e+08    5205.1867    154.73409    7.9601448        31638 
   48800    9.6749051 2.5973611e+08 2.5974132e+08    5204.8451      155.015    7.9631448        31638 
   48810    9.6710485 2.5973611e+08 2.5974132e+08    5204.5356    155.26378    7.9661448        31638 
   48820    9.6683334 2.5973611e+08 2.5974132e+08    5204.2606    155.47809    7.9691448        31638 
   48830    9.6669644 2.5973611e+08 2.5974132e+08    5204.0223    155.65586    7.9721448        31638 
   48840    9.6671274 2.5973611e+08 2.5974132e+08    5203.8222    155.79548    7.9751448        31638 
   48850    9.6689717 2.5973611e+08 2.5974132e+08    5203.6616    155.89552    7.9781448        31638 
   48860    9.6726069 2.5973611e+08 2.5974132e+08    5203.5415    155.95506    7.9811448        31638 
   48870    9.6781041 2.5973611e+08 2.5974132e+08    5203.4621    155.97342    7.9841448        31638 
   48880    9.6854866 2.5973611e+08 2.5974132e+08    5203.4235    155.95024    7.9871448        31638 
   48890    9.6947276 2.5973611e+08 2.5974132e+08    5203.4252    155.88562    7.9901448        31638 
   48900    9.7057546 2.5973611e+08 2.5974132e+08    5203.4663    155.78006    7.9931448        31638 
   48910    9.7184534 2.5973611e+08 2.5974132e+08    5203.5458     155.6343    7.9961448        31638 
   48920    9.7326796 2.5973611e+08 2.5974132e+08    5203.6619    155.44949    7.9991448        31638 
   48930    9.7482605 2.5973611e+08 2.5974132e+08    5203.8127    155.22728    8.0021448        31638 
   48940    9.7649887 2.5973611e+08 2.5974132e+08    5203.9961    154.96991    8.0051448        31638 
   48950    9.7826342 2.5973611e+08 2.5974132e+08    5204.2095    154.67986    8.0081448        31638 
   48960    9.8009627 2.5973611e+08 2.5974132e+08    5204.4502    154.36019    8.0111448        31638 
   48970    9.8197401 2.5973611e+08 2.5974132e+08    5204.7151    154.01435    8.0141448        31638 
   48980    9.8387406 2.5973611e+08 2.5974132e+08     5205.001    153.64613    8.0171448        31638 
   48990    9.8577454 2.5973611e+08 2.5974132e+08    5205.3046     153.2596    8.0201448        31638 
   49000    9.8764695 2.5973611e+08 2.5974132e+08    5205.6222    152.87504    8.0231448        31638 
   49010    9.8937431 2.5973611e+08 2.5974132e+08    5205.9502    152.45828    8.0261448        31638 
   49020    9.9106987 2.597361e+08 2.5974132e+08    5206.2848    152.04047    8.0291448        31638 
   49030    9.9270643 2.597361e+08 2.5974132e+08    5206.6221    151.62284    8.0321448        31638 
   49040    9.9427466 2.597361e+08 2.5974132e+08    5206.9581    151.20858    8.0351448        31638 
   49050    9.9576871 2.597361e+08 2.5974132e+08    5207.2891    150.80171    8.0381448        31638 
   49060    9.9718919 2.597361e+08 2.5974132e+08     5207.611    150.40599    8.0411448        31638 
   49070    9.9854267 2.597361e+08 2.5974132e+08    5207.9201    150.02501    8.0441448        31638 
   49080    9.9983915 2.597361e+08 2.5974132e+08    5208.2128    149.66227    8.0471448        31638 
   49090    10.010919 2.597361e+08 2.5974132e+08    5208.4855    149.32089    8.0501448        31638 
   49100    10.023166 2.597361e+08 2.5974132e+08     5208.735    149.00378    8.0531448        31638 
   49110    10.035301 2.597361e+08 2.5974132e+08    5208.9581    148.71354    8.0561448        31638 
   49120    10.047508 2.597361e+08 2.5974132e+08     5209.152    148.45256    8.0591448        31638 
   49130    10.059979 2.597361e+08 2.5974132e+08    5209.3143    148.22294    8.0621448        31638 
   49140    10.072907 2.597361e+08 2.5974132e+08    5209.4426    148.02651    8.0651448        31638 
   49150    10.086465 2.597361e+08 2.5974132e+08    5209.5351    147.86489    8.0681448        31638 
   49160    10.100798 2.597361e+08 2.5974132e+08    5209.5904    147.73935    8.0711448        31638 
   49170    10.116018 2.597361e+08 2.5974132e+08    5209.6071    147.65088    8.0741448        31638 
   49180    10.132196 2.597361e+08 2.5974132e+08    5209.5846    147.60021    8.0771448        31638 
   49190     10.14936 2.597361e+08 2.5974132e+08    5209.5224     147.5878    8.0801448        31638 
   49200    10.167494 2.597361e+08 2.5974132e+08    5209.4205    147.61369    8.0831448        31638 
   49210    10.186531 2.597361e+08 2.5974132e+08    5209.2795    147.67773    8.0861448        31638 
   49220    10.206357 2.597361e+08 2.5974132e+08       5209.1    147.77939    8.0891448        31638 
   49230    10.226817 2.597361e+08 2.5974132e+08    5208.8831    147.91777    8.0921448        31638 
   49240    10.247724 2.597361e+08 2.5974132e+08    5208.6305    148.09163    8.0951448        31638 
   49250    10.268861 2.597361e+08 2.5974132e+08    5208.3438    148.29941    8.0981448        31638 
   49260    10.289987 2.597361e+08 2.5974132e+08    5208.0253    148.53915    8.1011448        31638 
   49270     10.31084 2.597361e+08 2.5974132e+08    5207.6772    148.80866    8.1041448        31638 
   49280    10.331156 2.597361e+08 2.5974132e+08    5207.3024    149.10545    8.1071448        31638 
   49290    10.350677 2.597361e+08 2.5974132e+08    5206.9036    149.42677    8.1101448        31638 
   49300    10.369161 2.597361e+08 2.5974132e+08    5206.4839    149.76959    8.1131448        31638 
   49310    10.386388 2.597361e+08 2.5974132e+08    5206.0466     150.1305    8.1161448        31638 
   49320    10.402166 2.597361e+08 2.5974132e+08     5205.595    150.50607    8.1191448        31638 
   49330    10.416333 2.5973611e+08 2.5974132e+08    5205.1327    150.89273    8.1221448        31638 
   49340    10.428773 2.5973611e+08 2.5974132e+08    5204.6632    151.28688    8.1251448        31638 
   49350    10.439412 2.5973611e+08 2.5974132e+08    5204.1901    151.68471    8.1281448        31638 
   49360    10.448224 2.5973611e+08 2.5974132e+08    5203.7172    152.08238    8.1311448        31638 
   49370    10.455228 2.5973611e+08 2.5974132e+08    5203.2481    152.47605    8.1341448        31638 
   49380    10.460485 2.5973611e+08 2.5974132e+08    5202.7863     152.8621    8.1371448        31638 
   49390    10.464104 2.5973611e+08 2.5974132e+08    5202.3355    153.23699    8.1401448        31638 
   49400    10.466234 2.5973611e+08 2.5974132e+08    5201.8992     153.5972    8.1431448        31638 
   49410    10.467051 2.5973611e+08 2.5974132e+08    5201.4805    153.93935    8.1461448        31638 
   49420    10.466753 2.5973611e+08 2.5974132e+08    5201.0828     154.2603    8.1491448        31638 
   49430    10.465553 2.5973611e+08 2.5974132e+08    5200.7089    154.55712    8.1521448        31638 
   49440    10.463671 2.5973611e+08 2.5974132e+08    5200.3617    154.82712    8.1551448        31638 
   49450    10.461334 2.5973611e+08 2.5974132e+08    5200.0436    155.06809    8.1581448        31638 
   49460    10.458762 2.5973611e+08 2.5974132e+08    5199.7569    155.27802    8.1611448        31638 
   49470    10.456159 2.5973611e+08 2.5974132e+08    5199.5036    155.45528    8.1641448        31638 
   49480    10.453704 2.5973611e+08 2.5974132e+08    5199.2852    155.59844    8.1671448        31638 
   49490    10.451542 2.5973611e+08 2.5974132e+08    5199.1032    155.70642    8.1701448        31638 
   49500    10.449782 2.5973611e+08 2.5974132e+08    5198.9585    155.77836    8.1731448        31638 
   49510    10.448495 2.5973611e+08 2.5974132e+08    5198.8517    155.81372    8.1761448        31638 
   49520    10.447711 2.5973611e+08 2.5974132e+08     5198.783    155.81237    8.1791448        31638 
   49530    10.447416 2.5973611e+08 2.5974132e+08    5198.7523    155.77433    8.1821448        31638 
   49540    10.447561 2.5973611e+08 2.5974132e+08    5198.7593    155.70018    8.1851448        31638 
   49550    10.448059 2.5973611e+08 2.5974132e+08    5198.8029    155.59069    8.1881448        31638 
   49560    10.448798 2.5973611e+08 2.5974132e+08    5198.8822     155.4469    8.1911448        31638 
   49570    10.449634 2.5973611e+08 2.5974132e+08    5198.9956    155.27018    8.1941448        31638 
   49580    10.450402 2.5973611e+08 2.5974132e+08    5199.1413    155.06223    8.1971448        31638 
   49590    10.450922 2.5973611e+08 2.5974132e+08    5199.3172    154.82498    8.2001448        31638 
   49600    10.451005 2.5973611e+08 2.5974132e+08     5199.521    154.56075    8.2031448        31638 
   49610    10.450459 2.5973611e+08 2.5974132e+08    5199.7502    154.27202    8.2061448        31638 
   49620    10.449096 2.5973611e+08 2.5974132e+08     5200.002    153.96148    8.2091448        31638 
   49630    10.446746 2.5973611e+08 2.5974132e+08    5200.2733    153.63218    8.2121448        31638 
   49640    10.443264 2.5973611e+08 2.5974132e+08    5200.5612    153.28735    8.2151448        31638 
   49650    10.438533 2.5973611e+08 2.5974132e+08    5200.8623    152.93046    8.2181448        31638 
   49660    10.432458 2.5973611e+08 2.5974132e+08    5201.1733    152.56514    8.2211448        31638 
   49670    10.424972 2.5973611e+08 2.5974132e+08    5201.4908     152.1949    8.2241448        31638 
   49680    10.416043 2.5973611e+08 2.5974132e+08    5201.8113    151.82318    8.2271448        31638 
   49690    10.405684 2.5973611e+08 2.5974132e+08    5202.1315    151.45346    8.2301448        31638 
   49700    10.393946 2.5973611e+08 2.5974132e+08    5202.4477    151.08932    8.2331448        31638 
   49710    10.380902 2.5973611e+08 2.5974132e+08    5202.7567    150.73411    8.2361448        31638 
   49720     10.36665 2.5973611e+08 2.5974132e+08    5203.0551    150.39104    8.2391448        31638 
   49730    10.351309 2.5973611e+08 2.5974132e+08    5203.3397    150.06326    8.2421448        31638 
   49740    10.335014 2.5973611e+08 2.5974132e+08    5203.6074    149.75385    8.2451448        31638 
   49750    10.317917 2.5973611e+08 2.5974132e+08    5203.8554    149.46552    8.2481448        31638 
   49760    10.300178 2.5973611e+08 2.5974132e+08    5204.0808     149.2008    8.2511448        31638 
   49770    10.281951 2.5973611e+08 2.5974132e+08    5204.2813    148.96201    8.2541448        31638 
   49780    10.263385 2.5973611e+08 2.5974132e+08    5204.4544    148.75128    8.2571448        31638 
   49790     10.24462 2.5973611e+08 2.5974132e+08    5204.5983    148.57041    8.2601448        31638 
   49800    10.225781 2.5973611e+08 2.5974132e+08    5204.7112    148.42078    8.2631448        31638 
   49810    10.206974 2.5973611e+08 2.5974132e+08    5204.7916    148.30358    8.2661448        31638 
   49820    10.188276 2.5973611e+08 2.5974132e+08    5204.8386    148.21981    8.2691448        31638 
   49830    10.169733 2.5973611e+08 2.5974132e+08    5204.8512    148.17006    8.2721448        31638 
   49840    10.151365 2.5973611e+08 2.5974132e+08     5204.829    148.15461    8.2751448        31638 
   49850    10.133162 2.5973611e+08 2.5974132e+08    5204.7719    148.17351    8.2781448        31638 
   49860    10.115082 2.5973611e+08 2.5974132e+08    5204.6801     148.2266    8.2811448        31638 
   49870    10.097053 2.5973611e+08 2.5974132e+08    5204.5541    148.31353    8.2841448        31638 
   49880    10.078979 2.5973611e+08 2.5974132e+08    5204.3947    148.43355    8.2871448        31638 
   49890    10.060736 2.5973611e+08 2.5974132e+08    5204.2032    148.58578    8.2901448        31638 
   49900     10.04218 2.5973611e+08 2.5974132e+08     5203.981     148.7689    8.2931448        31638 
   49910    10.023147 2.5973611e+08 2.5974132e+08    5203.7298    148.98133    8.2961448        31638 
   49920    10.003459 2.5973611e+08 2.5974132e+08    5203.4517    149.22126    8.2991448        31638 
   49930    9.9829379 2.5973611e+08 2.5974132e+08     5203.149    149.48656    8.3021448        31638 
   49940    9.9614082 2.5973611e+08 2.5974132e+08    5202.8241    149.77489    8.3051448        31638 
   49950    9.9387039 2.5973611e+08 2.5974132e+08    5202.4797    150.08365    8.3081448        31638 
   49960    9.9146715 2.5973611e+08 2.5974132e+08    5202.1187    150.40998    8.3111448        31638 
   49970    9.8891787 2.5973611e+08 2.5974132e+08     5201.744    150.75095    8.3141448        31638 
   49980    9.8621185 2.5973611e+08 2.5974132e+08    5201.3588     151.1033    8.3171448        31638 
   49990    9.8334128 2.5973611e+08 2.5974132e+08    5200.9663    151.46361    8.3201448        31638 
   50000    9.8029553 2.5973611e+08 2.5974132e+08    5200.5698    151.84146    8.3231448        31638 
Loop time of 1002.33 on 1 procs for 50000 steps with 15702 atoms

Performance: 1292.985 tau/day, 49.884 timesteps/s
99.8% CPU use with 1 MPI tasks x no OpenMP threads

MPI task timing breakdown:
Section |  min time  |  avg time  |  max time  |%varavg| %total
---------------------------------------------------------------
Pair    | 785.94     | 785.94     | 785.94     |   0.0 | 78.41
Neigh   | 108.06     | 108.06     | 108.06     |   0.0 | 10.78
Comm    | 0.70672    | 0.70672    | 0.70672    |   0.0 |  0.07
Output  | 38.642     | 38.642     | 38.642     |   0.0 |  3.86
Modify  | 66.065     | 66.065     | 66.065     |   0.0 |  6.59
Other   |            | 2.919      |            |       |  0.29

Nlocal:    15702 ave 15702 max 15702 min
Histogram: 1 0 0 0 0 0 0 0 0 0
Nghost:    0 ave 0 max 0 min
Histogram: 1 0 0 0 0 0 0 0 0 0
Neighs:    179837 ave 179837 max 179837 min
Histogram: 1 0 0 0 0 0 0 0 0 0
FullNghs:  222000 ave 222000 max 222000 min
Histogram: 1 0 0 0 0 0 0 0 0 0

Total # of neighbors = 222000
Ave neighs/atom = 14.1383
Neighbor list builds = 10000
Dangerous builds not checked

Total wall time: 0:16:42
